     Program PWSCF v.7.3.1 starts on  3Jun2025 at  9: 2: 0

     Waiting for input...
     Reading input from standard input

     Current dimensions of program PWSCF are:
     Max number of different atomic species (ntypx) = 10
     Max number of k-points (npk) =  40000
     Max angular momentum in pseudopotentials (lmaxx) =  4
     file H.pbe-kjpaw_psl.1.0.0.UPF: wavefunction(s)  1S renormalized
     file Zr.pbe-spn-kjpaw_psl.1.0.0.UPF: wavefunction(s)  4S 4P renormalized
     file C.pbe-n-kjpaw_psl.1.0.0.UPF: wavefunction(s)  2S 2P renormalized
     file O.pbe-n-kjpaw_psl.1.0.0.UPF: wavefunction(s)  2S 2P renormalized

     IMPORTANT: XC functional enforced from input :
     Exchange-correlation= PBE
                           (   1   4   3   4   0   0   0)
     Any further DFT definition will be discarded
     Please, verify this is what you really want

     gamma-point specific algorithms are used
     Message from routine setup:
     using ibrav=0 with symmetry is DISCOURAGED, use correct ibrav instead

     R & G space division:  proc/nbgrp/npool/nimage =     256
     wavefunctions fft division:  task group distribution
                                  #TG    x Z-proc =       8     32
     Subspace diagonalization in iterative solution of the eigenvalue problem:
     one sub-group per band group will be used

     Using Pencil Decomposition

     Title:
     UiO-66-dehydrox GeomOpt

     bravais-lattice index     =            0
     lattice parameter (alat)  =      27.5901  a.u.
     unit-cell volume          =   15295.2814 (a.u.)^3
     number of atoms/cell      =          108
     number of atomic types    =            4
     number of electrons       =       468.00
     number of Kohn-Sham states=          234
     kinetic-energy cutoff     =      80.0000  Ry
     charge density cutoff     =     480.0000  Ry
     scf convergence threshold =      1.0E-08
     mixing beta               =       0.7000
     number of iterations used =            8  plain     mixing
     energy convergence thresh.=      3.6E-06
     force convergence thresh. =      1.0E-05
     press convergence thresh. =      5.0E-01
     Exchange-correlation= PBE
                           (   1   4   3   4   0   0   0)
     nstep                     =           50

     celldm(1)=  27.590096  celldm(2)=   0.000000  celldm(3)=   0.000000
     celldm(4)=   0.000000  celldm(5)=   0.000000  celldm(6)=   0.000000

     crystal axes: (cart. coord. in units of alat)
               a(1) = (   0.997473  -0.000036  -0.000026 )
               a(2) = (   0.473142   0.878117  -0.000025 )
               a(3) = (   0.473143   0.282506   0.831433 )

     reciprocal axes: (cart. coord. in units 2 pi/alat)
               b(1) = (  1.002504 -0.540175 -0.386952 )
               b(2) = (  0.000032  1.138772 -0.386952 )
               b(3) = (  0.000031  0.000018  1.202719 )

     PseudoPot. # 1 for H  read from file:
     /home/mehlhorn/pseudos/UiO-66_pbe-spn-kjpaw/H.pbe-kjpaw_psl.1.0.0.UPF
     MD5 check sum: d81a744832360e4a8af0b0b5b123bc2a
     Pseudo is Projector augmented-wave, Zval =  1.0
     Generated using &quot;atomic&quot; code by A. Dal Corso  v.6.3MaX
     Shape of augmentation charge: PSQ
     Using radial grid of  929 points,  2 beta functions with:
                l(1) =   0
                l(2) =   0
     Q(r) pseudized with 0 coefficients

     PseudoPot. # 2 for Zr read from file:
     /home/mehlhorn/pseudos/UiO-66_pbe-spn-kjpaw/Zr.pbe-spn-kjpaw_psl.1.0.0.UPF
     MD5 check sum: 02112c41713a0468aff2bb39ef194e36
     Pseudo is Projector augmented-wave + core cor, Zval = 12.0
     Generated using &quot;atomic&quot; code by A. Dal Corso  v.6.2.2
     Shape of augmentation charge: PSQ
     Using radial grid of 1225 points,  6 beta functions with:
                l(1) =   0
                l(2) =   0
                l(3) =   1
                l(4) =   1
                l(5) =   2
                l(6) =   2
     Q(r) pseudized with 0 coefficients

     PseudoPot. # 3 for C  read from file:
     /home/mehlhorn/pseudos/UiO-66_pbe-spn-kjpaw/C.pbe-n-kjpaw_psl.1.0.0.UPF
     MD5 check sum: 5f16ad9a65e90284d1d834d4ab3b0f7d
     Pseudo is Projector augmented-wave + core cor, Zval =  4.0
     Generated using &quot;atomic&quot; code by A. Dal Corso  v.6.3
     Shape of augmentation charge: PSQ
     Using radial grid of 1073 points,  4 beta functions with:
                l(1) =   0
                l(2) =   0
                l(3) =   1
                l(4) =   1
     Q(r) pseudized with 0 coefficients

     PseudoPot. # 4 for O  read from file:
     /home/mehlhorn/pseudos/UiO-66_pbe-spn-kjpaw/O.pbe-n-kjpaw_psl.1.0.0.UPF
     MD5 check sum: e99d9cef9b487d1ca56f5b95ecd0fd7a
     Pseudo is Projector augmented-wave + core cor, Zval =  6.0
     Generated using &quot;atomic&quot; code by A. Dal Corso  v.6.3
     Shape of augmentation charge: PSQ
     Using radial grid of 1095 points,  4 beta functions with:
                l(1) =   0
                l(2) =   0
                l(3) =   1
                l(4) =   1
     Q(r) pseudized with 0 coefficients

     atomic species   valence    mass     pseudopotential
     H                 1.00     1.00750     H ( 1.00)
     Zr               12.00    91.22400     Zr( 1.00)
     C                 4.00    12.01060     C ( 1.00)
     O                 6.00    15.99900     O ( 1.00)

      2 Sym. Ops., with inversion, found

   Cartesian axes

     site n.     atom                  positions (alat units)
         1        Zr     tau(   1) = (   0.9849210   0.1388727   0.1016999  )
         2        Zr     tau(   2) = (   0.9588362   1.0217129   0.7296822  )
         3        Zr     tau(   3) = (   0.5913219   0.8001756   0.0987675  )
         4        Zr     tau(   4) = (   1.3524353   0.3604106   0.7326138  )
         5        Zr     tau(   5) = (   0.5894727   0.3540654   0.7258500  )
         6        Zr     tau(   6) = (   1.3542839   0.8065211   0.1055321  )
         7        O      tau(   7) = (   1.0809447   0.2536807   0.0706164  )
         8        O      tau(   8) = (   0.8628129   0.9069058   0.7607657  )
         9        O      tau(   9) = (   0.6434825   0.8811457   0.2174724  )
        10        O      tau(  10) = (   1.3002751   0.2794408   0.6139097  )
        11        O      tau(  11) = (   0.7360924   0.3343100   0.7643216  )
        12        O      tau(  12) = (   1.2076652   0.8262765   0.0670605  )
        13        O      tau(  13) = (   1.2127067   0.3062859   0.7631083  )
        14        O      tau(  14) = (   0.7310509   0.8543006   0.0682738  )
        15        O      tau(  15) = (   1.2980878   0.6780787   0.0444751  )
        16        O      tau(  16) = (   0.6456698   0.4825078   0.7869070  )
        17        O      tau(  17) = (   0.8449063   1.0192697   0.6277145  )
        18        O      tau(  18) = (   1.0988513   0.1413168   0.2036676  )
        19        O      tau(  19) = (   1.0491033   1.0175226   0.6098831  )
        20        O      tau(  20) = (   0.8946543   0.1430639   0.2214990  )
        21        O      tau(  21) = (   1.2942144   0.4943220   0.7671913  )
        22        O      tau(  22) = (   0.6495432   0.6662645   0.0641908  )
        23        O      tau(  23) = (   1.3934154   0.7192987   0.2211976  )
        24        O      tau(  24) = (   0.5503422   0.4412878   0.6101845  )
        25        O      tau(  25) = (   0.5501013   0.7112874   0.2152148  )
        26        O      tau(  26) = (   1.3936563   0.4492991   0.6161673  )
        27        O      tau(  27) = (   0.6418027   0.2790432   0.6042222  )
        28        O      tau(  28) = (   1.3019549   0.8815433   0.2271600  )
        29        O      tau(  29) = (   0.8871166   0.2510192   0.0698000  )
        30        O      tau(  30) = (   1.0566410   0.9095673   0.7615821  )
        31        O      tau(  31) = (   0.8777632   0.0525565   0.0397321  )
        32        O      tau(  32) = (   1.0659944   1.1080300   0.7916500  )
        33        O      tau(  33) = (   0.4643899   0.7468495   0.0369791  )
        34        O      tau(  34) = (   1.4793677   0.4137370   0.7944030  )
        35        O      tau(  35) = (   0.4626541   0.2782156   0.6952395  )
        36        O      tau(  36) = (   1.4811035   0.8823709   0.1361426  )
        37        C      tau(  37) = (   1.3134051   0.9625836   0.2572095  )
        38        C      tau(  38) = (   0.6303525   0.1980029   0.5741726  )
        39        C      tau(  39) = (   1.1100731   0.8937816   0.8286448  )
        40        C      tau(  40) = (   0.8336845   0.2668049   0.0027373  )
        41        C      tau(  41) = (   1.4704281   0.4686243   0.5796445  )
        42        C      tau(  42) = (   0.4733295   0.6919623   0.2517376  )
        43        C      tau(  43) = (   0.8007495   0.8975864   0.8213197  )
        44        C      tau(  44) = (   1.1430081   0.2630001   0.0100624  )
        45        C      tau(  45) = (   1.3186669   0.1990285   0.5856030  )
        46        C      tau(  46) = (   0.6250907   0.9615580   0.2457791  )
        47        C      tau(  47) = (   1.1700200   0.8674545   0.0000310  )
        48        C      tau(  48) = (   0.7737376   0.2931320   0.8313511  )
        49        C      tau(  49) = (   1.1897263   0.3540421   0.0042811  )
        50        C      tau(  50) = (   0.7540313   0.8065444   0.8271010  )
        51        C      tau(  51) = (   0.6682214   0.9913843   0.3338401  )
        52        C      tau(  52) = (   1.2755363   0.1692022   0.4975420  )
        53        C      tau(  53) = (   0.8760460   0.2869955   0.8312592  )
        54        C      tau(  54) = (   1.0677116   0.8735910   0.0001229  )
        55        C      tau(  55) = (   0.6842287   0.1688561   0.4920683  )
        56        C      tau(  56) = (   1.2595289   0.9917305   0.3393138  )
        57        C      tau(  57) = (   0.7825516   0.3555598   0.0015581  )
        58        C      tau(  58) = (   1.1612060   0.8050267   0.8298240  )
        59        C      tau(  59) = (   0.4732284   0.6339319   0.3361530  )
        60        C      tau(  60) = (   1.4705293   0.5266546   0.4952291  )
[...]
        94        H      tau(  94) = (   1.3239545   0.5423085   0.4936192  )
        95        H      tau(  95) = (   0.7506686   0.2995559   0.4767285  )
        96        H      tau(  96) = (   1.1930890   0.8610306   0.3546536  )
        97        H      tau(  97) = (   0.7295806   0.8598626   0.3594600  )
        98        H      tau(  98) = (   1.2141770   0.3007239   0.4719222  )
        99        H      tau(  99) = (   0.8892552   0.3495782   0.6984867  )
       100        H      tau( 100) = (   1.0545024   0.8110083   0.1328954  )
       101        H      tau( 101) = (   1.1030510   0.4157528   0.1062559  )
       102        H      tau( 102) = (   0.8407066   0.7448337   0.7251262  )
       103        H      tau( 103) = (   0.8034272   0.9098074   0.5064672  )
       104        H      tau( 104) = (   1.1403304   0.2507791   0.3249149  )
       105        H      tau( 105) = (   1.0609652   0.3409363   0.6984763  )
       106        H      tau( 106) = (   0.8827924   0.8196502   0.1329058  )
[...]
     Cell gradient error     =      1.4E-02 kbar

[...]

     enthalpy           old  =   -4009.1719761669 Ry
     enthalpy           new  =   -4009.1719765375 Ry

     CASE: enthalpy          _new < enthalpy          _old

[...]

     Total force =     0.000493     Total SCF correction =     0.000018

[...]

     new trust radius        =       0.0015827525 bohr
     new conv_thr            =            1.0E-10 Ry

     new unit-cell volume =  15298.98687 a.u.^3 (  2267.07596 Ang^3 )
     density =      1.19244 g/cm^3

[...]

     Self-consistent Calculation

[...]

     Threshold (ethr) on eigenvalues was too large:
     Diagonalizing with lowered threshold

     Davidson diagonalization with overlap
     ethr =  4.79E-10,  avg # of iterations = 11.0

[...]

     total energy              =   -4009.17199160 Ry
     estimated scf accuracy    <          1.8E-10 Ry

     iteration # 12     ecut=    80.00 Ry     beta= 0.70
     Davidson diagonalization with overlap
     ethr =  1.00E-13,  avg # of iterations =  8.0

[...]

     End of self-consistent calculation

          k = 0.0000 0.0000 0.0000 ( 92351 PWs)   bands (ev):

   -49.6146 -49.5982 -49.5982 -49.5861 -49.5840 -49.5840 -28.1047 -28.0016
   -28.0016 -27.9081 -27.9081 -27.9000 -27.7727 -27.7278 -27.7278 -27.7212
   -27.7212 -27.6947 -27.6220 -27.6220 -27.5864 -27.5727 -27.5727 -27.5721
   -22.8391 -22.7921 -22.7921 -22.7864 -22.7863 -22.7609 -22.5837 -22.5771
   -22.5197 -22.5197 -22.5173 -22.5173 -20.5524 -20.5361 -20.5361 -20.5066
   -20.5065 -20.4709 -20.3466 -20.3466 -20.3232 -20.3232 -20.2399 -20.2358
   -17.9951 -17.7627 -17.7627 -17.5689 -17.5689 -17.5266 -17.3920 -17.3909
   -17.3909 -17.2136 -17.2136 -17.2114 -15.0499 -15.0498 -15.0404 -14.8616
   -14.8409 -14.8409 -14.4885 -14.4862 -14.4862 -14.3140 -14.3140 -14.3119
   -12.2912 -12.2550 -12.2549 -12.0948 -12.0362 -12.0361 -10.9633 -10.9633
   -10.9518 -10.7861 -10.7861 -10.7694 -10.2309 -10.2309 -10.1496 -10.0275
    -9.8540  -9.8540  -9.6150  -9.5559  -9.5559  -9.4462  -9.3767  -9.3767
    -8.7842  -8.6117  -8.5368  -8.5368  -8.3945  -8.3944  -8.3546  -8.1969
    -8.1969  -8.1492  -8.1492  -7.8690  -7.8668  -7.8668  -7.7623  -7.7622
    -7.6627  -7.6479  -7.6479  -7.6391  -7.5378  -7.3853  -7.3853  -7.2539
    -7.1550  -6.9174  -6.9173  -6.8584  -6.8323  -6.8323  -6.8319  -6.7359
    -6.7359  -6.6989  -6.6884  -6.6884  -6.6665  -6.6664  -6.6564  -6.5694
    -6.5341  -6.5341  -6.5118  -6.4523  -6.4247  -6.4247  -6.3472  -6.3472
    -6.2155  -6.1889  -6.1889  -6.0314  -6.0314  -6.0140  -5.7283  -5.6344
    -5.6344  -5.4576  -5.2483  -5.2483  -5.1317  -5.0008  -4.9574  -4.9574
    -4.8902  -4.8902  -4.8900  -4.8900  -4.8662  -4.7827  -4.7679  -4.7679
    -4.7319  -4.2509  -4.2509  -4.1980  -4.1505  -4.1505  -4.1504  -4.1440
    -4.1440  -3.9867  -3.9867  -3.9772  -3.9772  -3.9592  -3.8052  -3.6424
    -3.6424  -3.6109  -3.5191  -3.4017  -3.3714  -3.3714  -3.2986  -3.2417
    -3.2416  -3.2066  -3.1676  -3.1676  -3.0819  -3.0422  -3.0422  -2.9791
    -2.9791  -2.9224  -2.9224  -2.8177  -2.7474  -2.6837  -2.6837  -2.6831
    -2.6363  -2.6363  -2.5821  -2.5821  -2.5319  -2.5306  -2.5306  -2.4832
    -2.4264  -2.4263  -2.3926  -2.3791  -2.3782  -2.3723  -2.3723  -2.3449
    -2.3449  -2.2860  -2.2392  -2.2392  -2.1744  -2.1744  -2.1576  -1.6323
    -1.6323  -1.4967

     highest occupied level (ev):    -1.4967

!    total energy              =   -4009.17199160 Ry
     total all-electron energy =    -51389.589098 Ry
     estimated scf accuracy    <          3.0E-11 Ry

     The total energy is the sum of the following terms:
     one-electron contribution =   -6098.78745886 Ry
     hartree contribution      =    3180.87550797 Ry
     xc contribution           =    -570.38611454 Ry
     ewald contribution        =    1322.84354742 Ry
     one-center paw contrib.   =   -1843.71747358 Ry

     convergence has been achieved in  12 iterations

[...]

     Forces acting on atoms (cartesian axes, Ry/au):

     atom    1 type  2   force =     0.00004627   -0.00000871    0.00001175
     atom    2 type  2   force =    -0.00004627    0.00000871   -0.00001175
     atom    3 type  2   force =     0.00002526    0.00004043   -0.00001209
     atom    4 type  2   force =    -0.00002526   -0.00004043    0.00001209
     atom    5 type  2   force =     0.00001430    0.00002553    0.00003830
     atom    6 type  2   force =    -0.00001430   -0.00002553   -0.00003830
     atom    7 type  4   force =     0.00001107   -0.00001861    0.00003298
     atom    8 type  4   force =    -0.00001107    0.00001861   -0.00003298
     atom    9 type  4   force =     0.00002799   -0.00000547   -0.00002556
     atom   10 type  4   force =    -0.00002799    0.00000547    0.00002556
     atom   11 type  4   force =    -0.00001495    0.00003874    0.00000448
     atom   12 type  4   force =     0.00001495   -0.00003874   -0.00000448
     atom   13 type  4   force =     0.00001282    0.00000331    0.00000613
     atom   14 type  4   force =    -0.00001282   -0.00000331   -0.00000613
     atom   15 type  4   force =     0.00000973    0.00000353   -0.00000293
     atom   16 type  4   force =    -0.00000973   -0.00000353    0.00000293
     atom   17 type  4   force =     0.00000631    0.00000958    0.00000428
     atom   18 type  4   force =    -0.00000631   -0.00000958   -0.00000428
     atom   19 type  4   force =    -0.00004802   -0.00003973    0.00000831
     atom   20 type  4   force =     0.00004802    0.00003973   -0.00000831
     atom   21 type  4   force =    -0.00002691   -0.00003428   -0.00003558
     atom   22 type  4   force =     0.00002691    0.00003428    0.00003558
     atom   23 type  4   force =    -0.00005098   -0.00000120   -0.00002251
     atom   24 type  4   force =     0.00005098    0.00000120    0.00002251
     atom   25 type  4   force =     0.00002994    0.00001673    0.00003567
     atom   26 type  4   force =    -0.00002994   -0.00001673   -0.00003567
     atom   27 type  4   force =     0.00005058   -0.00000394   -0.00000346
     atom   28 type  4   force =    -0.00005058    0.00000394    0.00000346
     atom   29 type  4   force =     0.00002524    0.00004267    0.00000273
     atom   30 type  4   force =    -0.00002524   -0.00004267   -0.00000273
     atom   31 type  4   force =    -0.00003349   -0.00003225   -0.00002258
     atom   32 type  4   force =     0.00003349    0.00003225    0.00002258
     atom   33 type  4   force =    -0.00004271   -0.00001376   -0.00002458
     atom   34 type  4   force =     0.00004271    0.00001376    0.00002458
     atom   35 type  4   force =    -0.00005008   -0.00002335   -0.00000508
     atom   36 type  4   force =     0.00005008    0.00002335    0.00000508
     atom   37 type  3   force =     0.00005833   -0.00000994   -0.00003278
     atom   38 type  3   force =    -0.00005833    0.00000994    0.00003278
     atom   39 type  3   force =     0.00000286    0.00006726    0.00000713
     atom   40 type  3   force =    -0.00000286   -0.00006726   -0.00000713
     atom   41 type  3   force =     0.00003264   -0.00001027    0.00006106
     atom   42 type  3   force =    -0.00003264    0.00001027   -0.00006106
     atom   43 type  3   force =     0.00001873    0.00000963   -0.00000040
     atom   44 type  3   force =    -0.00001873   -0.00000963    0.00000040
     atom   45 type  3   force =     0.00001193    0.00000743    0.00001167
     atom   46 type  3   force =    -0.00001193   -0.00000743   -0.00001167
     atom   47 type  3   force =     0.00000741    0.00000159    0.00000914
     atom   48 type  3   force =    -0.00000741   -0.00000159   -0.00000914
     atom   49 type  3   force =     0.00000085    0.00000098    0.00002609
     atom   50 type  3   force =    -0.00000085   -0.00000098   -0.00002609
     atom   51 type  3   force =     0.00003718   -0.00005228   -0.00000686
     atom   52 type  3   force =    -0.00003718    0.00005228    0.00000686
     atom   53 type  3   force =    -0.00000778    0.00002442   -0.00000298
     atom   54 type  3   force =     0.00000778   -0.00002442    0.00000298
     atom   55 type  3   force =    -0.00001471    0.00003080    0.00004350
     atom   56 type  3   force =     0.00001471   -0.00003080   -0.00004350
     atom   57 type  3   force =     0.00003332   -0.00003944    0.00000363
     atom   58 type  3   force =    -0.00003332    0.00003944   -0.00000363
     atom   59 type  3   force =     0.00003158    0.00002213   -0.00002389
     atom   60 type  3   force =    -0.00003158   -0.00002213    0.00002389
[...]
     atom   94 type  1   force =    -0.00003079    0.00001406    0.00000416
     atom   95 type  1   force =     0.00000609    0.00002381   -0.00001315
     atom   96 type  1   force =    -0.00000609   -0.00002381    0.00001315
     atom   97 type  1   force =     0.00001641   -0.00004934    0.00000992
     atom   98 type  1   force =    -0.00001641    0.00004934   -0.00000992
     atom   99 type  1   force =     0.00000645    0.00001194   -0.00004076
     atom  100 type  1   force =    -0.00000645   -0.00001194    0.00004076
     atom  101 type  1   force =    -0.00002562    0.00002402    0.00002353
     atom  102 type  1   force =     0.00002562   -0.00002402   -0.00002353
     atom  103 type  1   force =     0.00001318    0.00001398    0.00000624
     atom  104 type  1   force =    -0.00001318   -0.00001398   -0.00000624
     atom  105 type  1   force =     0.00002180    0.00001037    0.00000463
     atom  106 type  1   force =    -0.00002180   -0.00001037   -0.00000463
     atom  107 type  1   force =     0.00001803    0.00001156    0.00000611
     atom  108 type  1   force =    -0.00001803   -0.00001156   -0.00000611

     Total force =     0.000420     Total SCF correction =     0.000012

     Computing stress (Cartesian axis) and pressure

     negative rho (up, down):  5.013E-04 0.000E+00
          total   stress  (Ry/bohr**3)                   (kbar)     P=       -0.01
  -0.00000008  -0.00000002  -0.00000002           -0.01       -0.00       -0.00
  -0.00000002  -0.00000005  -0.00000001           -0.00       -0.01       -0.00
  -0.00000002  -0.00000001  -0.00000004           -0.00       -0.00       -0.01

     Energy error            =      2.8E-07 Ry
     Gradient error          =      6.7E-05 Ry/Bohr
     Cell gradient error     =      1.1E-02 kbar

     number of scf cycles    =  50
     number of bfgs steps    =  49

     enthalpy           old  =   -4009.1719913199 Ry
     enthalpy           new  =   -4009.1719915953 Ry

     CASE: enthalpy          _new < enthalpy          _old

     new trust radius        =       0.0021818722 bohr

     The maximum number of steps has been reached.

     End of BFGS Geometry Optimization
     new unit-cell volume =  15298.80393 a.u.^3 (  2267.04885 Ang^3 )
     density =      1.19246 g/cm^3

CELL_PARAMETERS (alat= 27.59009591)
   0.997656168   0.000095702   0.000068504
   0.473345301   0.878216046   0.000068594
   0.473345269   0.282627066   0.831497764

ATOMIC_POSITIONS (crystal)
Zr               0.8729958110        0.1189841504        0.1221780609
Zr               0.1270041890        0.8810148496        0.8778219391
Zr               0.1221787041        0.8729958200        0.1189839702
Zr               0.8778212959        0.1270041800        0.8810150298
Zr               0.1189839803        0.1221784413        0.8729949029
Zr               0.8810150197        0.8778215587        0.1270050971
O                0.9195846172        0.2615159559        0.0847026851
O                0.0804153828        0.7384840441        0.9152973149
O                0.0847029501        0.9195836515        0.2615166069
O                0.9152970499        0.0804163485        0.7384833931
O                0.2615178016        0.0847026524        0.9195811640
O                0.7384821984        0.9152973476        0.0804188360
O                0.7547421967        0.0540721708        0.9177387880
O                0.2452578033        0.9459278292        0.0822612120
O                0.9177381806        0.7547406622        0.0540752699
O                0.0822618194        0.2452593378        0.9459247301
O                0.0540741369        0.9177387061        0.7547409054
O                0.9459258631        0.0822612939        0.2452590946
O                0.2664020399        0.9222894929        0.7338159897
O                0.7335979601        0.0777105071        0.2661840103
O                0.7338158974        0.2664007410        0.9222904277
O                0.2661841026        0.7335992590        0.0777095723
O                0.9222917792        0.7338154976        0.2664014996
O                0.0777082208        0.2661845024        0.7335985004
O                0.0835564005        0.7269464893        0.2590437891
O                0.9164435995        0.2730535107        0.7409562109
O                0.2590427038        0.0835550916        0.7269459588
O                0.7409572962        0.9164449084        0.2730540412
O                0.7269467072        0.2590437267        0.0835544184
O                0.2730532928        0.7409562733        0.9164455816
O                0.8362017709        0.0446575631        0.0476600202
O                0.1637982291        0.9553424369        0.9523399798
O                0.0476602925        0.8362015390        0.0446579369
O                0.9523397075        0.1637984610        0.9553420631
O                0.0446578725        0.0476602482        0.8362014528
O                0.9553421275        0.9523397518        0.1637985472
C                0.6969801251        0.9971102978        0.3091880519
C                0.3030198749        0.0028897022        0.6908119481
C                0.3091877256        0.6969801100        0.9971093563
C                0.6908122744        0.3030198900        0.0028906437
C                0.9971097822        0.3091876915        0.6969797941
C                0.0028902178        0.6908123085        0.3030202059
C               -0.0000831825        0.7042734335        0.9882160503
C                1.0000831825        0.2957265665        0.0117839497
C                0.9882158471       -0.0000822208        0.7042728461
C                0.0117841529        1.0000822208        0.2957271539
C                0.7042727496        0.9882161900       -0.0000824253
C                0.2957272504        0.0117838100        1.0000824253
C                0.9998790803        0.4016109038        0.0049955349
C                0.0001209197        0.5983890962        0.9950044651
C                0.0049951900        0.9998786694        0.4016113230
C                0.9950048100        0.0001213306        0.5983886770
C                0.4016109661        0.0049952187        0.9998785906
C                0.5983890339        0.9950047813        0.0001214094
C                0.4044678321        0.0016294830        0.5919881128
C                0.5955321679        0.9983705170        0.4080118872
C                0.5919884022        0.4044677143        0.0016298799
C                0.4080115978        0.5955322857        0.9983701201
C                0.0016302393        0.5919881853        0.4044679682
C                0.9983697607        0.4080118147        0.5955320318
[...]
H                0.8428746668        0.4271397264        0.5947073877
H                0.4052906482        0.1571240299        0.5728617738
H                0.5947093518        0.8428759701        0.4271382262
H                0.1279176611        0.8403255486        0.4320843780
H                0.8720823389        0.1596744514        0.5679156220
H                0.4320845887        0.1279173274        0.8403255258
H                0.5679154113        0.8720826726        0.1596744742
H                0.8403277263        0.4320815733        0.1279197276
H                0.1596722737        0.5679184267        0.8720802724
H                0.1184420016        0.8401783689        0.6087737040
H                0.8815579984        0.1598216311        0.3912262960
H                0.6087746783        0.1184405998        0.8401773421
H                0.3912253217        0.8815594002        0.1598226579
H                0.8401784096        0.6087721488        0.1184432398
H                0.1598215904        0.3912278512        0.8815567602

     Writing config-only to output data dir ./pwscf.save/ :
     XML data file
     NEW-OLD atomic charge density approx. for the potential

     Check: negative core charge=   -0.000001

     negative rho (up, down):  5.014E-04 0.000E+00

     Writing all to output data dir ./pwscf.save/ :
     XML data file, charge density, pseudopotentials, collected wavefunctions

     General routines

     Parallel routines

   This run was terminated on:   9:56:31   3Jun2025

   JOB DONE.