     Program PWSCF v.7.3.1 starts on  2Jun2025 at 13:43:32

     Waiting for input...
     Reading input from standard input

     Current dimensions of program PWSCF are:
     Max number of different atomic species (ntypx) = 10
     Max number of k-points (npk) =  40000
     Max angular momentum in pseudopotentials (lmaxx) =  4
     file H.pbe-kjpaw_psl.1.0.0.UPF: wavefunction(s)  1S renormalized
     file Zr.pbe-spn-kjpaw_psl.1.0.0.UPF: wavefunction(s)  4S 4P renormalized
     file C.pbe-n-kjpaw_psl.1.0.0.UPF: wavefunction(s)  2S 2P renormalized
     file O.pbe-n-kjpaw_psl.1.0.0.UPF: wavefunction(s)  2S 2P renormalized

     IMPORTANT: XC functional enforced from input :
     Exchange-correlation= PBE
                           (   1   4   3   4   0   0   0)
     Any further DFT definition will be discarded
     Please, verify this is what you really want

     gamma-point specific algorithms are used
     Message from routine setup:
     using ibrav=0 with symmetry is DISCOURAGED, use correct ibrav instead

     R & G space division:  proc/nbgrp/npool/nimage =     256
     wavefunctions fft division:  task group distribution
                                  #TG    x Z-proc =       8     32
     Subspace diagonalization in iterative solution of the eigenvalue problem:
     one sub-group per band group will be used

     Using Pencil Decomposition

     Title:
     UiO-66-dehydrox GeomOpt

     bravais-lattice index     =            0
     lattice parameter (alat)  =      27.5901  a.u.
     unit-cell volume          =   15410.4379 (a.u.)^3
     number of atoms/cell      =          108
     number of atomic types    =            4
     number of electrons       =       468.00
     number of Kohn-Sham states=          234
     kinetic-energy cutoff     =      80.0000  Ry
     charge density cutoff     =     480.0000  Ry
     scf convergence threshold =      1.0E-08
     mixing beta               =       0.7000
     number of iterations used =            8  plain     mixing
     energy convergence thresh.=      3.6E-06
     force convergence thresh. =      1.0E-05
     press convergence thresh. =      5.0E-01
     Exchange-correlation= PBE
                           (   1   4   3   4   0   0   0)
     nstep                     =           50

     celldm(1)=  27.590096  celldm(2)=   0.000000  celldm(3)=   0.000000
     celldm(4)=   0.000000  celldm(5)=   0.000000  celldm(6)=   0.000000

     crystal axes: (cart. coord. in units of alat)
               a(1) = (   1.000000   0.000000   0.000000 )
               a(2) = (   0.474373   0.880324   0.000000 )
               a(3) = (   0.474373   0.283240   0.833514 )

     reciprocal axes: (cart. coord. in units 2 pi/alat)
               b(1) = (  1.000000 -0.538862 -0.386011 )
               b(2) = (  0.000000  1.135945 -0.386011 )
               b(3) = (  0.000000  0.000000  1.199740 )

     PseudoPot. # 1 for H  read from file:
     /home/mehlhorn/pseudos/UiO-66_pbe-spn-kjpaw/H.pbe-kjpaw_psl.1.0.0.UPF
     MD5 check sum: d81a744832360e4a8af0b0b5b123bc2a
     Pseudo is Projector augmented-wave, Zval =  1.0
     Generated using &quot;atomic&quot; code by A. Dal Corso  v.6.3MaX
     Shape of augmentation charge: PSQ
     Using radial grid of  929 points,  2 beta functions with:
                l(1) =   0
                l(2) =   0
     Q(r) pseudized with 0 coefficients

     PseudoPot. # 2 for Zr read from file:
     /home/mehlhorn/pseudos/UiO-66_pbe-spn-kjpaw/Zr.pbe-spn-kjpaw_psl.1.0.0.UPF
     MD5 check sum: 02112c41713a0468aff2bb39ef194e36
     Pseudo is Projector augmented-wave + core cor, Zval = 12.0
     Generated using &quot;atomic&quot; code by A. Dal Corso  v.6.2.2
     Shape of augmentation charge: PSQ
     Using radial grid of 1225 points,  6 beta functions with:
                l(1) =   0
                l(2) =   0
                l(3) =   1
                l(4) =   1
                l(5) =   2
                l(6) =   2
     Q(r) pseudized with 0 coefficients

     PseudoPot. # 3 for C  read from file:
     /home/mehlhorn/pseudos/UiO-66_pbe-spn-kjpaw/C.pbe-n-kjpaw_psl.1.0.0.UPF
     MD5 check sum: 5f16ad9a65e90284d1d834d4ab3b0f7d
     Pseudo is Projector augmented-wave + core cor, Zval =  4.0
     Generated using &quot;atomic&quot; code by A. Dal Corso  v.6.3
     Shape of augmentation charge: PSQ
     Using radial grid of 1073 points,  4 beta functions with:
                l(1) =   0
                l(2) =   0
                l(3) =   1
                l(4) =   1
     Q(r) pseudized with 0 coefficients

     PseudoPot. # 4 for O  read from file:
     /home/mehlhorn/pseudos/UiO-66_pbe-spn-kjpaw/O.pbe-n-kjpaw_psl.1.0.0.UPF
     MD5 check sum: e99d9cef9b487d1ca56f5b95ecd0fd7a
     Pseudo is Projector augmented-wave + core cor, Zval =  6.0
     Generated using &quot;atomic&quot; code by A. Dal Corso  v.6.3
     Shape of augmentation charge: PSQ
     Using radial grid of 1095 points,  4 beta functions with:
                l(1) =   0
                l(2) =   0
                l(3) =   1
                l(4) =   1
     Q(r) pseudized with 0 coefficients

     atomic species   valence    mass     pseudopotential
     H                 1.00     1.00750     H ( 1.00)
     Zr               12.00    91.22400     Zr( 1.00)
     C                 4.00    12.01060     C ( 1.00)
     O                 6.00    15.99900     O ( 1.00)

      2 Sym. Ops., with inversion, found

   Cartesian axes

     site n.     atom                  positions (alat units)
         1        Zr     tau(   1) = (   0.9874385   0.1406099   0.1028706  )
         2        Zr     tau(   2) = (   0.9613068   1.0229535   0.7306432  )
         3        Zr     tau(   3) = (   0.5939845   0.8016007   0.1000350  )
         4        Zr     tau(   4) = (   1.3547608   0.3619634   0.7334780  )
         5        Zr     tau(   5) = (   0.5921963   0.3556221   0.7267907  )
         6        Zr     tau(   6) = (   1.3565484   0.8079423   0.1067231  )
         7        O      tau(   7) = (   1.0829912   0.2556075   0.0709387  )
         8        O      tau(   8) = (   0.8657546   0.9079569   0.7625751  )
         9        O      tau(   9) = (   0.6452684   0.8825084   0.2191916  )
        10        O      tau(  10) = (   1.3034774   0.2810559   0.6143222  )
        11        O      tau(  11) = (   0.7387590   0.3349007   0.7650582  )
        12        O      tau(  12) = (   1.2099867   0.8286636   0.0684557  )
        13        O      tau(  13) = (   1.2160212   0.3038793   0.7655358  )
        14        O      tau(  14) = (   0.7327246   0.8596851   0.0679781  )
        15        O      tau(  15) = (   1.3010030   0.6802730   0.0414131  )
        16        O      tau(  16) = (   0.6477428   0.4832914   0.7921007  )
        17        O      tau(  17) = (   0.8443597   1.0228752   0.6307757  )
        18        O      tau(  18) = (   1.1043861   0.1406891   0.2027381  )
        19        O      tau(  19) = (   1.0511521   1.0201826   0.6101063  )
        20        O      tau(  20) = (   0.8975937   0.1433817   0.2234075  )
        21        O      tau(  21) = (   1.2961269   0.4956182   0.7696367  )
        22        O      tau(  22) = (   0.6526189   0.6679461   0.0638772  )
        23        O      tau(  23) = (   1.3967293   0.7196855   0.2216372  )
        24        O      tau(  24) = (   0.5520165   0.4438789   0.6118767  )
        25        O      tau(  25) = (   0.5502502   0.7120582   0.2155800  )
        26        O      tau(  26) = (   1.3984956   0.4515061   0.6179338  )
        27        O      tau(  27) = (   0.6423963   0.2788914   0.6048335  )
        28        O      tau(  28) = (   1.3063495   0.8846729   0.2286803  )
        29        O      tau(  29) = (   0.8878657   0.2512903   0.0694592  )
        30        O      tau(  30) = (   1.0608801   0.9122741   0.7640546  )
        31        O      tau(  31) = (   0.8808878   0.0505801   0.0383491  )
        32        O      tau(  32) = (   1.0678579   1.1129843   0.7951647  )
        33        O      tau(  33) = (   0.4641602   0.7505224   0.0355519  )
        34        O      tau(  34) = (   1.4845856   0.4130420   0.7979620  )
        35        O      tau(  35) = (   0.4623962   0.2780930   0.6991756  )
        36        O      tau(  36) = (   1.4863496   0.8854713   0.1343383  )
        37        C      tau(  37) = (   1.3174479   0.9653750   0.2588586  )
        38        C      tau(  38) = (   0.6312979   0.1981893   0.5746553  )
        39        C      tau(  39) = (   1.1141568   0.8961724   0.8307557  )
        40        C      tau(  40) = (   0.8345889   0.2673920   0.0027581  )
        41        C      tau(  41) = (   1.4748043   0.4709058   0.5812275  )
        42        C      tau(  42) = (   0.4739415   0.6926586   0.2522863  )
        43        C      tau(  43) = (   0.8028284   0.8996901   0.8220305  )
        44        C      tau(  44) = (   1.1459174   0.2638742   0.0114833  )
        45        C      tau(  45) = (   1.3208423   0.2002179   0.5873655  )
        46        C      tau(  46) = (   0.6279035   0.9633464   0.2461483  )
        47        C      tau(  47) = (   1.1728588   0.8683960   0.0005893  )
        48        C      tau(  48) = (   0.7758869   0.2951683   0.8329245  )
        49        C      tau(  49) = (   1.1929434   0.3551301   0.0051044  )
        50        C      tau(  50) = (   0.7558024   0.8084343   0.8284094  )
        51        C      tau(  51) = (   0.6707418   0.9936815   0.3346041  )
        52        C      tau(  52) = (   1.2780040   0.1698829   0.4989097  )
        53        C      tau(  53) = (   0.8785295   0.2885201   0.8331862  )
        54        C      tau(  54) = (   1.0702163   0.8750442   0.0003276  )
        55        C      tau(  55) = (   0.6857135   0.1690789   0.4927459  )
        56        C      tau(  56) = (   1.2630323   0.9944855   0.3407680  )
        57        C      tau(  57) = (   0.7838843   0.3565278   0.0015495  )
        58        C      tau(  58) = (   1.1648615   0.8070365   0.8319643  )
        59        C      tau(  59) = (   0.4741280   0.6349603   0.3370713  )
        60        C      tau(  60) = (   1.4746177   0.5286040   0.4964425  )
[...]
        94        H      tau(  94) = (   1.3279096   0.5434229   0.4948480  )
        95        H      tau(  95) = (   0.7524396   0.2997752   0.4782019  )
        96        H      tau(  96) = (   1.1963062   0.8637892   0.3553119  )
        97        H      tau(  97) = (   0.7325859   0.8626366   0.3607231  )
        98        H      tau(  98) = (   1.2161598   0.3009277   0.4727907  )
        99        H      tau(  99) = (   0.8925201   0.3512327   0.7007059  )
       100        H      tau( 100) = (   1.0562257   0.8123316   0.1328079  )
       101        H      tau( 101) = (   1.1069186   0.4173780   0.1071074  )
       102        H      tau( 102) = (   0.8418271   0.7461863   0.7264065  )
       103        H      tau( 103) = (   0.8052656   0.9131109   0.5081775  )
       104        H      tau( 104) = (   1.1434801   0.2504534   0.3253363  )
       105        H      tau( 105) = (   1.0641990   0.3412817   0.7010535  )
       106        H      tau( 106) = (   0.8845468   0.8222826   0.1324603  )
[...]
     enthalpy           new  =   -4009.1666137236 Ry

     CASE: enthalpy          _new < enthalpy          _old

[...]

     Threshold (ethr) on eigenvalues was too large:
     Diagonalizing with lowered threshold

     Davidson diagonalization with overlap
     ethr =  5.28E-08,  avg # of iterations =  9.0

[...]

     new trust radius        =       0.0007563620 bohr
     new conv_thr            =            1.0E-10 Ry

     new unit-cell volume =  15295.28707 a.u.^3 (  2266.52770 Ang^3 )
     density =      1.19273 g/cm^3

[...]

     Self-consistent Calculation

[...]

     Threshold (ethr) on eigenvalues was too large:
     Diagonalizing with lowered threshold

     Davidson diagonalization with overlap
     ethr =  7.34E-10,  avg # of iterations =  9.0

[...]

     total energy              =   -4009.17222609 Ry
     estimated scf accuracy    <          1.1E-10 Ry

     iteration # 23     ecut=    80.00 Ry     beta= 0.70
     Davidson diagonalization with overlap
     ethr =  1.00E-13,  avg # of iterations =  1.0

[...]

     End of self-consistent calculation

          k = 0.0000 0.0000 0.0000 ( 93113 PWs)   bands (ev):

   -49.6135 -49.5971 -49.5970 -49.5849 -49.5829 -49.5828 -28.1034 -28.0005
   -28.0005 -27.9069 -27.9069 -27.8987 -27.7715 -27.7265 -27.7264 -27.7199
   -27.7198 -27.6934 -27.6208 -27.6208 -27.5851 -27.5716 -27.5715 -27.5710
   -22.8366 -22.7893 -22.7893 -22.7837 -22.7836 -22.7581 -22.5840 -22.5771
   -22.5197 -22.5196 -22.5173 -22.5172 -20.5498 -20.5338 -20.5338 -20.5042
   -20.5042 -20.4685 -20.3467 -20.3467 -20.3233 -20.3232 -20.2398 -20.2357
   -17.9940 -17.7616 -17.7615 -17.5677 -17.5676 -17.5255 -17.3887 -17.3877
   -17.3876 -17.2146 -17.2146 -17.2124 -15.0469 -15.0468 -15.0374 -14.8625
   -14.8416 -14.8416 -14.4852 -14.4831 -14.4830 -14.3149 -14.3148 -14.3127
   -12.2884 -12.2523 -12.2521 -12.0957 -12.0369 -12.0368 -10.9601 -10.9600
   -10.9487 -10.7866 -10.7866 -10.7699 -10.2286 -10.2285 -10.1496 -10.0257
    -9.8537  -9.8537  -9.6121  -9.5533  -9.5532  -9.4466  -9.3773  -9.3772
    -8.7812  -8.6113  -8.5344  -8.5344  -8.3948  -8.3947  -8.3518  -8.1965
    -8.1965  -8.1473  -8.1473  -7.8683  -7.8658  -7.8657  -7.7598  -7.7598
    -7.6612  -7.6461  -7.6461  -7.6387  -7.5363  -7.3855  -7.3855  -7.2531
    -7.1510  -6.9149  -6.9149  -6.8549  -6.8335  -6.8335  -6.8321  -6.7323
    -6.7323  -6.6968  -6.6866  -6.6866  -6.6628  -6.6627  -6.6587  -6.5698
    -6.5343  -6.5342  -6.5094  -6.4520  -6.4247  -6.4246  -6.3473  -6.3473
    -6.2115  -6.1860  -6.1859  -6.0321  -6.0320  -6.0147  -5.7264  -5.6325
    -5.6325  -5.4560  -5.2474  -5.2473  -5.1312  -4.9978  -4.9552  -4.9552
    -4.8891  -4.8891  -4.8886  -4.8886  -4.8653  -4.7829  -4.7673  -4.7673
    -4.7307  -4.2494  -4.2493  -4.1967  -4.1483  -4.1478  -4.1477  -4.1424
    -4.1424  -3.9845  -3.9845  -3.9775  -3.9775  -3.9596  -3.8038  -3.6408
    -3.6408  -3.6093  -3.5171  -3.3991  -3.3701  -3.3701  -3.2959  -3.2424
    -3.2424  -3.2066  -3.1686  -3.1685  -3.0819  -3.0396  -3.0396  -2.9770
    -2.9770  -2.9206  -2.9206  -2.8154  -2.7502  -2.6817  -2.6817  -2.6802
    -2.6343  -2.6343  -2.5797  -2.5796  -2.5331  -2.5294  -2.5294  -2.4843
    -2.4245  -2.4245  -2.3895  -2.3798  -2.3780  -2.3712  -2.3711  -2.3425
    -2.3424  -2.2857  -2.2396  -2.2394  -2.1747  -2.1745  -2.1584  -1.6324
    -1.6324  -1.4971

     highest occupied level (ev):    -1.4971

!    total energy              =   -4009.17222609 Ry
     total all-electron energy =    -51389.589333 Ry
     estimated scf accuracy    <          7.3E-11 Ry

     The total energy is the sum of the following terms:
     one-electron contribution =   -6097.95285366 Ry
     hartree contribution      =    3180.47845439 Ry
     xc contribution           =    -570.38570089 Ry
     ewald contribution        =    1322.40537327 Ry
     one-center paw contrib.   =   -1843.71749921 Ry

     convergence has been achieved in  23 iterations

[...]

     Forces acting on atoms (cartesian axes, Ry/au):

     atom    1 type  2   force =     0.00001611   -0.00004468   -0.00000384
     atom    2 type  2   force =    -0.00001611    0.00004468    0.00000384
     atom    3 type  2   force =     0.00000562    0.00000678   -0.00002750
     atom    4 type  2   force =    -0.00000562   -0.00000678    0.00002750
     atom    5 type  2   force =    -0.00002243    0.00000243    0.00002562
     atom    6 type  2   force =     0.00002243   -0.00000243   -0.00002562
     atom    7 type  4   force =    -0.00006919   -0.00004532   -0.00003692
     atom    8 type  4   force =     0.00006919    0.00004532    0.00003692
     atom    9 type  4   force =    -0.00007595   -0.00001510   -0.00001403
     atom   10 type  4   force =     0.00007595    0.00001510    0.00001403
     atom   11 type  4   force =    -0.00006228   -0.00005124   -0.00002046
     atom   12 type  4   force =     0.00006228    0.00005124    0.00002046
     atom   13 type  4   force =     0.00004066    0.00002466    0.00005809
     atom   14 type  4   force =    -0.00004066   -0.00002466   -0.00005809
     atom   15 type  4   force =     0.00006660    0.00001578    0.00001693
     atom   16 type  4   force =    -0.00006660   -0.00001578   -0.00001693
     atom   17 type  4   force =     0.00006689    0.00004263    0.00002690
     atom   18 type  4   force =    -0.00006689   -0.00004263   -0.00002690
     atom   19 type  4   force =    -0.00000221   -0.00000551   -0.00005634
     atom   20 type  4   force =     0.00000221    0.00000551    0.00005634
     atom   21 type  4   force =    -0.00003497    0.00005639    0.00006483
     atom   22 type  4   force =     0.00003497   -0.00005639   -0.00006483
     atom   23 type  4   force =    -0.00002953   -0.00004246    0.00000406
     atom   24 type  4   force =     0.00002953    0.00004246   -0.00000406
     atom   25 type  4   force =    -0.00008657    0.00006812   -0.00000388
     atom   26 type  4   force =     0.00008657   -0.00006812    0.00000388
     atom   27 type  4   force =    -0.00002765   -0.00010195    0.00005743
     atom   28 type  4   force =     0.00002765    0.00010195   -0.00005743
     atom   29 type  4   force =     0.00006924   -0.00004876   -0.00003323
     atom   30 type  4   force =    -0.00006924    0.00004876    0.00003323
     atom   31 type  4   force =    -0.00003563   -0.00001622   -0.00002186
     atom   32 type  4   force =     0.00003563    0.00001622    0.00002186
     atom   33 type  4   force =    -0.00004699   -0.00002045   -0.00001188
     atom   34 type  4   force =     0.00004699    0.00002045    0.00001188
     atom   35 type  4   force =    -0.00002667   -0.00004305   -0.00001558
     atom   36 type  4   force =     0.00002667    0.00004305    0.00001558
     atom   37 type  3   force =    -0.00000813   -0.00002085   -0.00003257
     atom   38 type  3   force =     0.00000813    0.00002085    0.00003257
     atom   39 type  3   force =     0.00004833    0.00003320    0.00013912
     atom   40 type  3   force =    -0.00004833   -0.00003320   -0.00013912
     atom   41 type  3   force =    -0.00002505   -0.00001130   -0.00001361
     atom   42 type  3   force =     0.00002505    0.00001130    0.00001361
     atom   43 type  3   force =     0.00002649    0.00001363    0.00002894
     atom   44 type  3   force =    -0.00002649   -0.00001363   -0.00002894
     atom   45 type  3   force =     0.00003430    0.00001017    0.00000522
     atom   46 type  3   force =    -0.00003430   -0.00001017   -0.00000522
     atom   47 type  3   force =     0.00004552    0.00004088   -0.00001753
     atom   48 type  3   force =    -0.00004552   -0.00004088    0.00001753
     atom   49 type  3   force =     0.00006774   -0.00003521   -0.00011151
     atom   50 type  3   force =    -0.00006774    0.00003521    0.00011151
     atom   51 type  3   force =     0.00002515   -0.00012504    0.00002213
     atom   52 type  3   force =    -0.00002515    0.00012504   -0.00002213
     atom   53 type  3   force =     0.00000635   -0.00002710   -0.00000489
     atom   54 type  3   force =    -0.00000635    0.00002710    0.00000489
     atom   55 type  3   force =     0.00003083    0.00000492    0.00000597
     atom   56 type  3   force =    -0.00003083   -0.00000492   -0.00000597
     atom   57 type  3   force =     0.00004832    0.00005454    0.00007335
     atom   58 type  3   force =    -0.00004832   -0.00005454   -0.00007335
     atom   59 type  3   force =     0.00004611    0.00001517    0.00001470
     atom   60 type  3   force =    -0.00004611   -0.00001517   -0.00001470
[...]
     atom   94 type  1   force =     0.00003466   -0.00001535    0.00003219
     atom   95 type  1   force =    -0.00004026   -0.00003150    0.00001987
     atom   96 type  1   force =     0.00004026    0.00003150   -0.00001987
     atom   97 type  1   force =     0.00001422   -0.00005193   -0.00000205
     atom   98 type  1   force =    -0.00001422    0.00005193    0.00000205
     atom   99 type  1   force =    -0.00000060    0.00001195   -0.00002923
     atom  100 type  1   force =     0.00000060   -0.00001195    0.00002923
     atom  101 type  1   force =     0.00000586    0.00001363   -0.00000212
     atom  102 type  1   force =    -0.00000586   -0.00001363    0.00000212
     atom  103 type  1   force =     0.00006470   -0.00002422    0.00005913
     atom  104 type  1   force =    -0.00006470    0.00002422   -0.00005913
     atom  105 type  1   force =     0.00008893    0.00004662   -0.00007054
     atom  106 type  1   force =    -0.00008893   -0.00004662    0.00007054
     atom  107 type  1   force =    -0.00001220    0.00011595    0.00007986
     atom  108 type  1   force =     0.00001220   -0.00011595   -0.00007986

     Total force =     0.000822     Total SCF correction =     0.000012

     Computing stress (Cartesian axis) and pressure

     negative rho (up, down):  5.101E-04 0.000E+00
          total   stress  (Ry/bohr**3)                   (kbar)     P=        0.01
   0.00000012   0.00000001   0.00000004            0.02        0.00        0.01
   0.00000001   0.00000008   0.00000001            0.00        0.01        0.00
   0.00000004   0.00000001   0.00000006            0.01        0.00        0.01

     Energy error            =      6.5E-07 Ry
     Gradient error          =      1.4E-04 Ry/Bohr
     Cell gradient error     =      1.7E-02 kbar

     number of scf cycles    =  50
     number of bfgs steps    =  49

     enthalpy           old  =   -4009.1722254417 Ry
     enthalpy           new  =   -4009.1722260947 Ry

     CASE: enthalpy          _new < enthalpy          _old

     new trust radius        =       0.0007363682 bohr

     The maximum number of steps has been reached.

     End of BFGS Geometry Optimization
     new unit-cell volume =  15295.28136 a.u.^3 (  2266.52685 Ang^3 )
     density =      1.19273 g/cm^3

CELL_PARAMETERS (alat= 27.59009591)
   0.997472947  -0.000036368  -0.000025559
   0.473142123   0.878116922  -0.000025374
   0.473142543   0.282505957   0.831433036

ATOMIC_POSITIONS (crystal)
Zr               0.8730185572        0.1188225181        0.1223492341
Zr               0.1269814428        0.8811764819        0.8776507659
Zr               0.1223495046        0.8730181941        0.1188222942
Zr               0.8776504954        0.1269818059        0.8811767058
Zr               0.1188224274        0.1223491588        0.8730181255
Zr               0.8811765726        0.8776508412        0.1269818745
O                0.9192941257        0.2615935283        0.0849696406
O                0.0807058743        0.7384064717        0.9150303594
O                0.0849696837        0.9192931766        0.2615939922
O                0.9150303163        0.0807068234        0.7384060078
O                0.2615939044        0.0849702898        0.9192928316
O                0.7384060956        0.9150297102        0.0807071684
O                0.7550089597        0.0535417216        0.9178478003
O                0.2449910403        0.9464582784        0.0821521997
O                0.9178472586        0.7550085015        0.0535433822
O                0.0821527414        0.2449914985        0.9464566178
O                0.0535426647        0.9178472416        0.7550087374
O                0.9464573353        0.0821527584        0.2449912626
O                0.2660945967        0.9227640561        0.7335688131
O                0.7339054033        0.0772359439        0.2664311869
O                0.7335685317        0.2660946567        0.9227643782
O                0.2664314683        0.7339053433        0.0772356218
O                0.9227644384        0.7335685558        0.2660945929
O                0.0772355616        0.2664314442        0.7339054071
O                0.0839814218        0.7267338839        0.2588728062
O                0.9160185782        0.2732661161        0.7411271938
O                0.2588726547        0.0839817650        0.7267342937
O                0.7411273453        0.9160182350        0.2732657063
O                0.7267342806        0.2588724867        0.0839816909
O                0.2732657194        0.7411275133        0.9160183091
O                0.8361968730        0.0445031807        0.0478145458
O                0.1638031270        0.9554968193        0.9521854542
O                0.0478142640        0.8361970387        0.0445033495
O                0.9521857360        0.1638029613        0.9554966505
O                0.0445031525        0.0478143816        0.8361970135
O                0.9554968475        0.9521856184        0.1638029865
C                0.6972025705        0.9966772478        0.3094086765
C                0.3027974295        0.0033227522        0.6905913235
C                0.3094085491        0.6972028123        0.9966773086
C                0.6905914509        0.3027971877        0.0033226914
C                0.9966762348        0.3094080449        0.6972032261
C                0.0033237652        0.6905919551        0.3027967739
C                0.0000896555        0.7043602979        0.9878577336
C                0.9999103445        0.2956397021        0.0121422664
C                0.9878582832        0.0000893712        0.7043600576
C                0.0121417168        0.9999106288        0.2956399424
C                0.7043605275        0.9878581323        0.0000891214
C                0.2956394725        0.0121418677        0.9999108786
C                0.9998040314        0.4015543271        0.0051920495
C                0.0001959686        0.5984456729        0.9948079505
C                0.0051936107        0.9998018790        0.4015544423
C                0.9948063893        0.0001981210        0.5984455577
C                0.4015544100        0.0051926091        0.9998034139
C                0.5984455900        0.9948073909        0.0001965861
C                0.4043233702        0.0019032617        0.5918440766
C                0.5956766298        0.9980967383        0.4081559234
C                0.5918436674        0.4043235381        0.0019044922
C                0.4081563326        0.5956764619        0.9980955078
C                0.0019041704        0.5918438175        0.4043237198
C                0.9980958296        0.4081561825        0.5956762802
[...]
H                0.8433212148        0.4266006485        0.5937358119
H                0.4062645788        0.1566784786        0.5733989916
H                0.5937354212        0.8433215214        0.4266010084
H                0.1278375178        0.8401169444        0.4323673936
H                0.8721624822        0.1598830556        0.5676326064
H                0.4323676319        0.1278370767        0.8401170087
H                0.5676323681        0.8721629233        0.1598829913
H                0.8401177807        0.4323666378        0.1278375226
H                0.1598822193        0.5676333622        0.8721624774
H                0.1180054115        0.8401101902        0.6091789910
H                0.8819945885        0.1598898098        0.3908210090
H                0.6091797602        0.1180052954        0.8401096263
H                0.3908202398        0.8819947046        0.1598903737
H                0.8401099993        0.6091785365        0.1180063610
H                0.1598900007        0.3908214635        0.8819936390

     Writing config-only to output data dir ./pwscf.save/ :
     XML data file
     NEW-OLD atomic charge density approx. for the potential

     Check: negative core charge=   -0.000001

     negative rho (up, down):  5.104E-04 0.000E+00

     Writing all to output data dir ./pwscf.save/ :
     XML data file, charge density, pseudopotentials, collected wavefunctions

     General routines

     Parallel routines

   This run was terminated on:  14:45:10   2Jun2025

   JOB DONE.