     Program PWSCF v.7.3.1 starts on 16Aug2025 at  9:52:52

     Waiting for input...
     Reading input from standard input
Warning: card                                           ! GAMMA MUSS REICHEN UND REICHT FÃ¼R UIO-66 VERMUTLICH AUCH ignored

     Current dimensions of program PWSCF are:
     Max number of different atomic species (ntypx) = 10
     Max number of k-points (npk) =  40000
     Max angular momentum in pseudopotentials (lmaxx) =  4
     file H.pbe-mt_fhi.UPF: wavefunction(s)  2p 4f renormalized
     file Zr.pbe-mt_fhi.UPF: wavefunction(s)  4f renormalized
     file C.pbe-mt_fhi.UPF: wavefunction(s)  4f renormalized
     file O.pbe-mt_fhi.UPF: wavefunction(s)  4f renormalized
     file N.pbe-mt_fhi.UPF: wavefunction(s)  4f renormalized

     IMPORTANT: XC functional enforced from input :
     Exchange-correlation= HSE
                           (   1   4  12   4   0   0   0)
     EXX-fraction              =        0.25
     Any further DFT definition will be discarded
     Please, verify this is what you really want

     Message from routine setup:
     no reason to have ecutrho>4*ecutwfc

     R & G space division:  proc/nbgrp/npool/nimage =     256
     wavefunctions fft division:  task group distribution
                                  #TG    x Z-proc =       8     32
     Subspace diagonalization in iterative solution of the eigenvalue problem:
     one sub-group per band group will be used

     EXX: q-point mesh:     1    1    1
     EXX: grid of k+q points same as grid of k-points

     Using Pencil Decomposition

     bravais-lattice index     =            0
     lattice parameter (alat)  =      27.5206  a.u.
     unit-cell volume          =   15323.5057 (a.u.)^3
     number of atoms/cell      =          120
     number of atomic types    =            5
     number of electrons       =       456.00
     number of Kohn-Sham states=          504
     kinetic-energy cutoff     =     150.0000  Ry
     charge density cutoff     =     900.0000  Ry
     cutoff for Fock operator  =     600.0000  Ry
     scf convergence threshold =      1.0E-10
     mixing beta               =       0.7000
     number of iterations used =            8  plain     mixing
     Exchange-correlation= HSE
                           (   1   4  12   4   0   0   0)
     EXX-fraction              =        0.25

     celldm(1)=  27.520592  celldm(2)=   0.000000  celldm(3)=   0.000000
     celldm(4)=   0.000000  celldm(5)=   0.000000  celldm(6)=   0.000000

     crystal axes: (cart. coord. in units of alat)
               a(1) = (   0.999446  -0.001436  -0.001029 )
               a(2) = (   0.472799   0.880543  -0.001029 )
               a(3) = (   0.472799   0.282318   0.834058 )

     reciprocal axes: (cart. coord. in units 2 pi/alat)
               b(1) = (  0.999387 -0.537061 -0.384730 )
               b(2) = (  0.001234  1.134551 -0.384730 )
               b(3) = (  0.001234  0.000737  1.198008 )

     PseudoPot. # 1 for H  read from file:
     /home/mehlhorn/pseudos/UiO-66_pbe-mt_fhi/H.pbe-mt_fhi.UPF
     MD5 check sum: a51ab2e498800631a519c120141ab865
     Pseudo is Norm-conserving, Zval =  1.0
     Generated using FHI98PP, converted with fhi2upf.x v.5.0.2
     Using radial grid of  387 points,  3 beta functions with:
                l(1) =   0
                l(2) =   1
                l(3) =   3

     PseudoPot. # 2 for Zr read from file:
     /home/mehlhorn/pseudos/UiO-66_pbe-mt_fhi/Zr.pbe-mt_fhi.UPF
     MD5 check sum: d7174933297848aa528ce1e54352b3ca
     Pseudo is Norm-conserving, Zval =  4.0
     Generated using FHI98PP, converted with fhi2upf.x v.5.0.2
     Using radial grid of  539 points,  3 beta functions with:
                l(1) =   0
                l(2) =   2
                l(3) =   3

     PseudoPot. # 3 for C  read from file:
     /home/mehlhorn/pseudos/UiO-66_pbe-mt_fhi/C.pbe-mt_fhi.UPF
     MD5 check sum: e90676e360d65248580884789dafaf8e
     Pseudo is Norm-conserving, Zval =  4.0
     Generated using FHI98PP, converted with fhi2upf.x v.5.0.2
     Using radial grid of  461 points,  3 beta functions with:
                l(1) =   0
                l(2) =   1
                l(3) =   3

     PseudoPot. # 4 for O  read from file:
     /home/mehlhorn/pseudos/UiO-66_pbe-mt_fhi/O.pbe-mt_fhi.UPF
     MD5 check sum: 99adf16d734adfb1dfafd143319e1c8a
     Pseudo is Norm-conserving, Zval =  6.0
     Generated using FHI98PP, converted with fhi2upf.x v.5.0.2
     Using radial grid of  473 points,  3 beta functions with:
                l(1) =   0
                l(2) =   1
                l(3) =   3

     PseudoPot. # 5 for N  read from file:
     /home/mehlhorn/pseudos/UiO-66_pbe-mt_fhi/N.pbe-mt_fhi.UPF
     MD5 check sum: 7f83aac2c813a0e1096af144166c4722
     Pseudo is Norm-conserving, Zval =  5.0
     Generated using FHI98PP, converted with fhi2upf.x v.5.0.2
     Using radial grid of  467 points,  3 beta functions with:
                l(1) =   0
                l(2) =   1
                l(3) =   3

     atomic species   valence    mass     pseudopotential
     H                 1.00     1.00750     H ( 1.00)
     Zr                4.00    91.22400     Zr( 1.00)
     C                 4.00    12.01060     C ( 1.00)
     O                 6.00    15.99900     O ( 1.00)
     N                 5.00    14.00650     N ( 1.00)

     No symmetry found

   Cartesian axes

     site n.     atom                  positions (alat units)
         1        Zr     tau(   1) = (   0.9900351   0.1395721   0.1028148  )
         2        Zr     tau(   2) = (   0.5948311   0.8041031   0.0990732  )
         3        Zr     tau(   3) = (   0.5924712   0.3564570   0.7294772  )
         4        Zr     tau(   4) = (   1.3593131   0.8096220   0.1042222  )
         5        Zr     tau(   5) = (   0.9609403   1.0263134   0.7330459  )
         6        Zr     tau(   6) = (   1.3575073   0.3601294   0.7359093  )
         7        O      tau(   7) = (   1.0822206   0.2556387   0.0706772  )
         8        O      tau(   8) = (   0.6446423   0.8819793   0.2193084  )
         9        O      tau(   9) = (   0.7383762   0.3344255   0.7645307  )
        10        O      tau(  10) = (   1.3050849   0.2843358   0.6141994  )
        11        O      tau(  11) = (   0.8693500   0.9077934   0.7625462  )
        12        O      tau(  12) = (   1.2115304   0.8296993   0.0716142  )
        13        O      tau(  13) = (   1.3021148   0.6833735   0.0362806  )
        14        O      tau(  14) = (   1.2192337   0.2988655   0.7667885  )
        15        O      tau(  15) = (   0.7345818   0.8622163   0.0677781  )
        16        O      tau(  16) = (   0.8414196   1.0257378   0.6353683  )
        17        O      tau(  17) = (   0.8821769   0.0540665   0.0408540  )
        18        O      tau(  18) = (   0.4678065   0.7500255   0.0380477  )
        19        O      tau(  19) = (   0.6491321   0.4846731   0.7945690  )
        20        O      tau(  20) = (   1.1074825   0.1406542   0.2032725  )
        21        O      tau(  21) = (   0.6534953   0.6702597   0.0664010  )
        22        O      tau(  22) = (   0.5551547   0.4432001   0.6132612  )
        23        O      tau(  23) = (   0.8912274   0.2537272   0.0678963  )
        24        O      tau(  24) = (   1.3962336   0.7205419   0.2189193  )
        25        O      tau(  25) = (   1.0488275   1.0208990   0.6118008  )
        26        O      tau(  26) = (   1.2965981   0.4927793   0.7697897  )
        27        O      tau(  27) = (   0.4660363   0.2802902   0.6979083  )
        28        O      tau(  28) = (   1.3089800   0.8852955   0.2274430  )
        29        O      tau(  29) = (   0.5511899   0.7153797   0.2183932  )
        30        O      tau(  30) = (   1.4858087   0.8853650   0.1351118  )
        31        O      tau(  31) = (   1.4841876   0.4136454   0.7973944  )
        32        O      tau(  32) = (   1.0681407   1.1122427   0.7948240  )
        33        O      tau(  33) = (   1.4002517   0.4509953   0.6203258  )
        34        O      tau(  34) = (   0.6461007   0.2779890   0.6070828  )
        35        O      tau(  35) = (   1.0612093   0.9151157   0.7650530  )
        36        O      tau(  36) = (   0.9000321   0.1456770   0.2223356  )
        37        N      tau(  37) = (   1.0714438   0.4367846   0.0960603  )
        38        N      tau(  38) = (   0.7119933   0.8334486   0.3826577  )
        39        N      tau(  39) = (   0.8927354   0.3277623   0.6660268  )
        40        N      tau(  40) = (   1.3035223   0.6479163   0.3587113  )
        41        N      tau(  41) = (   1.1886863   0.6099629   0.6801534  )
        42        N      tau(  42) = (   1.1008050   0.8875820   0.4980622  )
        43        C      tau(  43) = (   0.8040020   0.9013582   0.8203017  )
        44        C      tau(  44) = (   1.3204081   0.2018493   0.5895252  )
        45        C      tau(  45) = (   0.1557334   0.0832754   0.2491964  )
        46        C      tau(  46) = (   1.1748689   0.8668573   0.0014535  )
        47        C      tau(  47) = (   0.1910103   0.3589529   0.0061845  )
        48        C      tau(  48) = (   0.4066049   0.0051788  -0.0039831  )
        49        C      tau(  49) = (   0.3051705   0.0124762  -0.0013245  )
        50        C      tau(  50) = (   0.1471801   0.2673477   0.0122387  )
        51        C      tau(  51) = (   1.1519119   0.4373571   0.0474079  )
        52        C      tau(  52) = (   0.7097701   0.9260516   0.3988519  )
        53        C      tau(  53) = (   0.7934923   0.7321772   0.7845492  )
        54        C      tau(  54) = (   1.2773572   0.1704730   0.5016588  )
        55        C      tau(  55) = (   0.7559594   0.8107582   0.8267775  )
        56        C      tau(  56) = (   1.0723214   0.8732078   0.0000129  )
        57        C      tau(  57) = (   0.1974220   0.1106009   0.3378791  )
        58        C      tau(  58) = (   1.1984927   0.2030724   0.3601715  )
        59        C      tau(  59) = (   1.1140866   0.8981334   0.8325402  )
        60        C      tau(  60) = (   1.3191110   0.9667624   0.2574336  )
[...]
       106        H      tau( 106) = (   0.7468695   0.2986547   0.4777646  )
       107        H      tau( 107) = (   1.2052459   0.8620847   0.3547956  )
       108        H      tau( 108) = (   1.0337338   0.3781417   0.0964754  )
       109        H      tau( 109) = (   1.0391455   0.4974451   0.1064925  )
       110        H      tau( 110) = (   1.3306146   0.5457383   0.5033102  )
       111        H      tau( 111) = (   1.2990852   0.6781594   0.2960359  )
       112        H      tau( 112) = (   1.0550237   0.9072087   0.5468616  )
       113        H      tau( 113) = (   1.2471294   0.6185331   0.3866549  )
       114        H      tau( 114) = (   0.7225495   0.7910729   0.4367365  )
       115        H      tau( 115) = (   1.2132064   0.5447479   0.6830368  )
       116        H      tau( 116) = (   0.9308179   0.3192346   0.6085054  )
       117        H      tau( 117) = (   0.6778428   0.8090133   0.3269988  )
       118        H      tau( 118) = (   0.8232224   0.3264236   0.6607974  )
       119        H      tau( 119) = (   1.1360708   0.6249329   0.6373533  )
       120        H      tau( 120) = (   1.0890267   0.8298703   0.4612515  )

     number of k points=     1
                       cart. coord. in units 2pi/alat
        k(    1) = (   0.0000000   0.0000000   0.0000000), wk =   2.0000000

     Initial potential from superposition of free atoms

     starting charge     455.9850, renormalised to     456.0000

     negative rho (up, down):  1.042E-02 0.000E+00
     Starting wfcs are 1920 randomized atomic wfcs

     Self-consistent Calculation

     iteration #  1     ecut=   150.00 Ry     beta= 0.70
     Davidson diagonalization with overlap
     ethr =  1.00E-02,  avg # of iterations =  7.0

     negative rho (up, down):  2.756E-03 0.000E+00

     total energy              =   -1694.12803162 Ry
     estimated scf accuracy    <      18.52896194 Ry

[...]

     negative rho (up, down):  1.182E-06 0.000E+00

[...]

     End of self-consistent calculation

          k = 0.0000 0.0000 0.0000 (475407 PWs)   bands (ev):

   -22.8087 -22.7848 -22.7847 -22.7432 -22.7431 -22.7246 -22.5906 -22.5422
   -22.4942 -22.4942 -22.4566 -22.4566 -20.5278 -20.5030 -20.5030 -20.4492
   -20.4492 -20.4163 -20.3039 -20.3038 -20.2559 -20.2558 -20.1754 -20.1382
   -19.0169 -19.0130 -19.0129 -18.7652 -18.7651 -18.7651 -18.3543 -18.0471
   -18.0471 -17.6234 -17.6234 -17.4719 -16.8831 -16.8824 -16.8824 -16.6613
   -16.6573 -16.6573 -14.9399 -14.9399 -14.9290 -14.7169 -14.6928 -14.6928
   -13.9760 -13.9759 -13.9716 -13.7569 -13.7562 -13.7562 -12.3463 -12.3055
   -12.3055 -12.1275 -12.0515 -12.0515 -10.9998 -10.9982 -10.9981 -10.7717
   -10.7717 -10.7601 -10.3220 -10.3220 -10.1943 -10.0992  -9.9889  -9.9202
    -9.9202  -9.8925  -9.8925  -9.7763  -9.6826  -9.6826  -9.0291  -8.9817
    -8.9817  -8.7792  -8.7316  -8.7316  -8.6496  -8.4925  -8.4925  -8.3894
    -8.3855  -8.3855  -8.2469  -8.1611  -8.1611  -8.0287  -8.0287  -7.9664
    -7.9473  -7.9473  -7.8360  -7.8360  -7.8091  -7.7188  -7.7138  -7.7137
    -7.6086  -7.5284  -7.5284  -7.3272  -7.3272  -7.3154  -7.3057  -7.1638
    -7.1313  -7.1313  -7.0761  -6.8749  -6.8748  -6.7870  -6.7870  -6.7654
    -6.6977  -6.5723  -6.5723  -6.5032  -6.3984  -6.3984  -6.3887  -6.3080
    -6.3080  -6.2683  -6.2445  -6.2445  -6.1357  -6.1357  -6.1152  -6.0399
    -6.0399  -6.0322  -5.7071  -5.7023  -5.7023  -5.5644  -5.3674  -5.3674
    -5.3601  -5.2874  -5.2874  -5.2558  -5.1204  -5.1007  -5.1007  -4.9283
    -4.9283  -4.8840  -4.8840  -4.8156  -4.7845  -4.4488  -4.4488  -4.4376
    -4.2819  -4.2600  -4.2599  -4.1630  -4.1629  -4.1257  -4.1257  -4.1208
    -3.9754  -3.9754  -3.8653  -3.7018  -3.6828  -3.6828  -3.6214  -3.6118
    -3.6118  -3.5489  -3.4982  -3.4334  -3.4334  -3.3406  -3.3406  -3.3131
    -3.2730  -3.2598  -3.2598  -3.1775  -3.1616  -3.1616  -3.1345  -3.0150
    -3.0150  -2.9715  -2.9715  -2.9134  -2.9134  -2.8679  -2.7624  -2.7315
    -2.7228  -2.7228  -2.5967  -2.5952  -2.5952  -2.5731  -2.5731  -2.5268
    -2.5058  -2.5058  -2.4233  -2.3543  -2.3542  -2.3308  -2.3307  -2.3095
    -2.1310  -2.0976  -2.0976  -1.5046  -1.5046  -1.3686  -1.0498  -1.0498
    -1.0360  -0.8304  -0.8138  -0.8138   1.0420   1.4486   1.4486   1.6080
     1.7248   1.7248   1.9653   2.6533   2.6822   2.6822   2.8434   2.8800
     2.8801   3.0541   3.0541   3.1374   3.1653   3.1653   3.2729   3.3251
     3.3349   3.3350   3.3564   3.4091   3.4091   3.4996   3.5653   3.7627
     3.7627   3.7807   3.7808   3.8160   3.9760   4.0501   4.0501   4.0655
     4.2443   4.2581   4.2581   4.3830   4.3830   4.4377   4.5496   4.5496
     4.5710   4.6339   4.6339   4.8339   4.8339   4.9134   4.9455   4.9967
     4.9967   5.1247   5.1337   5.1337   5.2816   5.2816   5.3117   5.3117
     5.3897   5.3971   5.4912   5.6677   5.6677   5.7751   5.7751   5.8314
     5.8663   5.8663   5.8716   5.9363   5.9649   5.9649   6.0057   6.1595
     6.1595   6.2223   6.2348   6.2348   6.2431   6.2967   6.3713   6.3713
     6.4920   6.4951   6.4951   6.5481   6.6304   6.6304   6.7002   6.8921
     6.8922   7.0654   7.0877   7.0877   7.1758   7.1758   7.2155   7.2998
     7.2998   7.3149   7.4152   7.4697   7.4697   7.5557   7.5557   7.5896
     7.6777   7.7096   7.7096   7.7194   7.7997   7.7997   7.9106   7.9485
     7.9485   7.9717   8.0626   8.1043   8.1043   8.1121   8.2828   8.3768
     8.3768   8.4778   8.4982   8.4982   8.5796   8.5796   8.6395   8.6826
     8.7302   8.7302   8.7492   8.8452   8.8822   8.8822   8.9191   8.9395
     8.9395   9.0034   9.0034   9.0075   9.0971   9.0971   9.1793   9.1793
     9.2566   9.3448   9.4312   9.4648   9.4648   9.4990   9.5575   9.5575
     9.5954   9.6219   9.6219   9.6569   9.6805   9.6805   9.7920   9.7993
     9.7993   9.8325   9.8325   9.8516   9.9154   9.9154   9.9474  10.0157
    10.0256  10.0256  10.0851  10.0851  10.0862  10.1554  10.1836  10.1836
    10.2924  10.2924  10.3232  10.3925  10.3925  10.4082  10.4391  10.4878
    10.4878  10.5662  10.5662  10.6431  10.7149  10.7149  10.7202  10.7795
    10.7795  10.8234  10.8864  10.9539  10.9844  10.9844  11.0017  11.0199
    11.0199  11.1672  11.1672  11.1768  11.2543  11.3140  11.3140  11.3346
    11.3641  11.3641  11.5148  11.5349  11.5586  11.5587  11.6581  11.6581
    11.6704  11.7146  11.7146  11.7228  11.8011  11.8011  11.8622  11.8645
    11.8645  12.0080  12.0080  12.0094  12.0549  12.0559  12.0559  12.1586
    12.1586  12.1847  12.2638  12.2638  12.2843  12.3026  12.3557  12.3557
    12.4613  12.4750  12.4750  12.5294  12.5294  12.5818  12.5818  12.6020
    12.6533  12.6936  12.6936  12.6960  12.7257  12.7805  12.7805  12.8921
    12.9027  12.9027  12.9401  12.9401  12.9546  12.9972  12.9972  13.0397
    13.1055  13.1431  13.1432  13.1809  13.2697  13.2698  13.3071  13.3573

     highest occupied, lowest unoccupied level (ev):    -0.8138    1.0420

!    total energy              =   -1700.60294472 Ry
     estimated scf accuracy    <          2.4E-11 Ry

     convergence has been achieved in  19 iterations

     Using ACE for calculation of exact exchange

     EXX: now go back to refine exchange calculation

[...]

     iteration #  1     ecut=   150.00 Ry     beta= 0.70
     Davidson diagonalization with overlap
     c_bands:  3 eigenvalues not converged
     ethr =  1.00E-13,  avg # of iterations = 20.0

[...]

     Using ACE for calculation of exact exchange
     ACE projected onto   504 (nbndproj) and applied to   504 (nbnd) bands

     total energy              =   -1699.45378854 Ry
     Harris-Foulkes estimate   =   -1699.45378854 Ry
     est. exchange err (dexx)  =       0.01193766 Ry
     - averaged Fock potential =     175.23597950 Ry
     + Fock energy (ACE)       =     -87.78624109 Ry

[...]

     total energy              =   -1699.45516194 Ry
     Harris-Foulkes estimate   =   -1699.45516194 Ry
     est. exchange err (dexx)  =          2.0E-10 Ry
     - averaged Fock potential =     175.64504289 Ry
     + Fock energy (ACE)       =     -87.82252869 Ry

     EXX: now go back to refine exchange calculation

     Self-consistent Calculation

[...]

     total energy              =   -1699.45516194 Ry
     estimated scf accuracy    <          4.5E-10 Ry

     iteration #  3     ecut=   150.00 Ry     beta= 0.70
     Davidson diagonalization with overlap
     ethr =  1.00E-13,  avg # of iterations =  2.0

     End of self-consistent calculation

          k = 0.0000 0.0000 0.0000 (475407 PWs)   bands (ev):

   -25.7906 -25.7635 -25.7635 -25.7151 -25.7150 -25.6939 -25.5645 -25.5046
   -25.4577 -25.4576 -25.4093 -25.4093 -23.3798 -23.3514 -23.3514 -23.2900
   -23.2899 -23.2522 -23.1430 -23.1430 -23.0848 -23.0848 -22.9997 -22.9522
   -21.5476 -21.5430 -21.5430 -21.2935 -21.2904 -21.2904 -21.0981 -20.7692
   -20.7692 -20.3127 -20.3127 -20.1538 -19.3015 -19.3004 -19.3004 -19.0760
   -19.0712 -19.0712 -17.2121 -17.2121 -17.1992 -16.9859 -16.9585 -16.9585
   -16.1310 -16.1310 -16.1263 -15.9086 -15.9074 -15.9074 -14.3424 -14.2897
   -14.2897 -14.1186 -14.0273 -14.0273 -12.7574 -12.7574 -12.7574 -12.5285
   -12.5285 -12.5148 -12.1894 -12.1894 -12.0613 -11.9215 -11.7211 -11.7211
   -11.6963 -11.5708 -11.5708 -11.4423 -11.3267 -11.3266 -10.5340 -10.4668
   -10.4668 -10.3072 -10.2308 -10.2256 -10.2256 -10.0876 -10.0876  -9.9931
    -9.9930  -9.9223  -9.7834  -9.7282  -9.7282  -9.5826  -9.5826  -9.5243
    -9.4942  -9.4942  -9.3796  -9.3796  -9.3643  -9.2603  -9.2528  -9.2527
    -9.0910  -9.0482  -9.0482  -8.8208  -8.7439  -8.7439  -8.7380  -8.5815
    -8.5483  -8.5483  -8.4633  -8.2544  -8.2544  -8.1416  -8.1334  -8.1334
    -8.0496  -7.9093  -7.9093  -7.8296  -7.7157  -7.7157  -7.6959  -7.6448
    -7.6448  -7.5630  -7.5367  -7.5367  -7.4429  -7.4429  -7.4287  -7.3328
    -7.3328  -7.3185  -7.0754  -7.0754  -7.0673  -6.9107  -6.6989  -6.6989
    -6.5515  -6.4971  -6.4370  -6.4370  -6.2995  -6.2995  -6.2685  -6.1808
    -6.1808  -6.1210  -6.1210  -6.0680  -6.0014  -5.6018  -5.6018  -5.5867
    -5.5133  -5.4062  -5.4061  -5.3308  -5.3308  -5.2948  -5.2847  -5.2847
    -5.1238  -5.1238  -4.9884  -4.9422  -4.8356  -4.8356  -4.6881  -4.6490
    -4.6462  -4.6462  -4.5200  -4.5011  -4.5010  -4.4952  -4.4564  -4.4564
    -4.4473  -4.4003  -4.4002  -4.3419  -4.3268  -4.3268  -4.2503  -4.2447
    -4.2447  -4.1673  -4.1328  -4.1328  -4.0557  -4.0556  -4.0462  -4.0061
    -4.0061  -3.8567  -3.8429  -3.8428  -3.7779  -3.7778  -3.7460  -3.7139
    -3.6638  -3.6638  -3.6445  -3.4715  -3.4715  -3.0513  -3.0513  -2.9964
    -2.8454  -2.8290  -2.8290  -2.5065  -2.5065  -2.4082  -1.6315  -1.6315
    -1.6143  -1.4111  -1.3960  -1.3960   1.3873   1.8186   1.8186   1.9824
     2.1007   2.1008   2.4136   3.1049   3.1575   3.2551   3.2552   3.4278
     3.4278   3.5717   3.5717   3.6603   3.6902   3.6902   3.7381   3.8405
     3.8729   3.8729   3.9554   4.0109   4.0109   4.0368   4.1380   4.1380
     4.1718   4.2784   4.3396   4.3397   4.3432   4.5490   4.5490   4.5535
     4.6809   4.7870   4.7870   4.8687   4.8687   4.8752   5.0207   5.0562
     5.0562   5.1036   5.1036   5.2755   5.3884   5.3885   5.5854   5.6147
     5.6147   5.7150   5.7188   5.7188   5.7867   5.8528   5.8528   5.9142
     6.0210   6.0210   6.1002   6.1002   6.1430   6.2423   6.2775   6.2775
     6.2881   6.3457   6.3457   6.4371   6.4792   6.4792   6.5838   6.6163
     6.6418   6.6418   6.7006   6.7103   6.7103   6.8151   7.0134   7.0134
     7.0139   7.0225   7.1681   7.1682   7.2620   7.2620   7.3444   7.3444
     7.3546   7.4586   7.5211   7.5211   7.6720   7.6969   7.6969   7.7844
     7.7844   7.8162   7.8454   7.9207   7.9207   8.0649   8.0651   8.0651
     8.0899   8.2315   8.2315   8.2347   8.3929   8.4271   8.4271   8.5463
     8.6496   8.6497   8.7571   8.7792   8.8436   8.8436   8.8792   8.8792
     8.9115   9.0135   9.0135   9.0648   9.0745   9.0760   9.0760   9.2494
     9.2665   9.2666   9.2681   9.3355   9.3839   9.3839   9.4805   9.4897
     9.4897   9.5623   9.5833   9.5833   9.6393   9.6393   9.6859   9.6859
     9.7074   9.8732   9.9731   9.9731  10.0433  10.0772  10.0772  10.0934
    10.1365  10.1497  10.1497  10.2195  10.2490  10.2490  10.3001  10.3001
    10.3075  10.3736  10.3736  10.3765  10.4303  10.5174  10.5174  10.5303
    10.5761  10.5761  10.6640  10.6640  10.7078  10.7737  10.8119  10.8119
    10.8824  10.9423  10.9423  10.9779  11.0152  11.0152  11.0607  11.1302
    11.1302  11.2251  11.2310  11.2310  11.2618  11.3953  11.3953  11.4166
    11.4263  11.4263  11.4848  11.5439  11.5732  11.5732  11.6315  11.6569
    11.6569  11.7950  11.8160  11.8160  11.9197  11.9630  11.9630  11.9870
    12.0241  12.0699  12.0699  12.1735  12.1813  12.1813  12.2835  12.2835
    12.2948  12.3368  12.3368  12.3882  12.4354  12.4354  12.5124  12.5124
    12.5565  12.6409  12.6613  12.6785  12.6785  12.7259  12.7259  12.7808
    12.8004  12.8004  12.8420  12.9311  12.9311  13.0002  13.0289  13.0289
    13.0389  13.0811  13.0811  13.1242  13.1242  13.1486  13.1666  13.1666
    13.2376  13.2972  13.3755  13.3755  13.3844  13.3844  13.4444  13.4976
    13.5431  13.5432  13.5523  13.6049  13.6383  13.6383  13.6565  13.6565
    13.7367  13.7368  13.7632  13.8573  13.9200  13.9217  13.9839  14.0456

     highest occupied, lowest unoccupied level (ev):    -1.3960    1.3873

!    total energy              =   -1699.45516194 Ry
     estimated scf accuracy    <          1.6E-12 Ry

     convergence has been achieved in   3 iterations

     Using ACE for calculation of exact exchange
     ACE projected onto   504 (nbndproj) and applied to   504 (nbnd) bands

!!   total energy              =   -1699.45516194 Ry
     Harris-Foulkes estimate   =   -1699.45516194 Ry
     est. exchange err (dexx)  =          8.4E-12 Ry
     - averaged Fock potential =     175.64505892 Ry
     + Fock energy (ACE)       =     -87.82253023 Ry

     EXX self-consistency reached

     Writing all to output data dir ./pwscf.save/ :
     XML data file, charge density, pseudopotentials, collected wavefunctions

     General routines

     Parallel routines

     EXX routines

   This run was terminated on:  16:36:29  16Aug2025

   JOB DONE.