     Program PWSCF v.7.3.1 starts on  4Jun2025 at  8:14: 5

     Waiting for input...
     Reading input from standard input

     Current dimensions of program PWSCF are:
     Max number of different atomic species (ntypx) = 10
     Max number of k-points (npk) =  40000
     Max angular momentum in pseudopotentials (lmaxx) =  4
     file H.pbe-kjpaw_psl.1.0.0.UPF: wavefunction(s)  1S renormalized
     file Zr.pbe-spn-kjpaw_psl.1.0.0.UPF: wavefunction(s)  4S 4P renormalized
     file C.pbe-n-kjpaw_psl.1.0.0.UPF: wavefunction(s)  2S 2P renormalized
     file O.pbe-n-kjpaw_psl.1.0.0.UPF: wavefunction(s)  2S 2P renormalized

     IMPORTANT: XC functional enforced from input :
     Exchange-correlation= PBE
                           (   1   4   3   4   0   0   0)
     Any further DFT definition will be discarded
     Please, verify this is what you really want

     gamma-point specific algorithms are used
     Message from routine setup:
     using ibrav=0 with symmetry is DISCOURAGED, use correct ibrav instead

     R & G space division:  proc/nbgrp/npool/nimage =     256
     wavefunctions fft division:  task group distribution
                                  #TG    x Z-proc =       8     32
     Subspace diagonalization in iterative solution of the eigenvalue problem:
     one sub-group per band group will be used

     Using Pencil Decomposition

     Title:
     UiO-66-dehydrox GeomOpt

     bravais-lattice index     =            0
     lattice parameter (alat)  =      27.5901  a.u.
     unit-cell volume          =   15298.4621 (a.u.)^3
     number of atoms/cell      =          108
     number of atomic types    =            4
     number of electrons       =       468.00
     number of Kohn-Sham states=          234
     kinetic-energy cutoff     =     100.0000  Ry
     charge density cutoff     =     600.0000  Ry
     scf convergence threshold =      1.0E-08
     mixing beta               =       0.7000
     number of iterations used =            8  plain     mixing
     energy convergence thresh.=      3.6E-06
     force convergence thresh. =      1.0E-05
     press convergence thresh. =      5.0E-01
     Exchange-correlation= PBE
                           (   1   4   3   4   0   0   0)
     nstep                     =          750

     celldm(1)=  27.590096  celldm(2)=   0.000000  celldm(3)=   0.000000
     celldm(4)=   0.000000  celldm(5)=   0.000000  celldm(6)=   0.000000

     crystal axes: (cart. coord. in units of alat)
               a(1) = (   0.997642   0.000087   0.000062 )
               a(2) = (   0.473331   0.878208   0.000062 )
               a(3) = (   0.473331   0.282619   0.831491 )

     reciprocal axes: (cart. coord. in units 2 pi/alat)
               b(1) = (  1.002435 -0.540258 -0.387011 )
               b(2) = ( -0.000075  1.138750 -0.387012 )
               b(3) = ( -0.000075 -0.000045  1.202717 )

     PseudoPot. # 1 for H  read from file:
     /home/mehlhorn/pseudos/UiO-66_pbe-spn-kjpaw/H.pbe-kjpaw_psl.1.0.0.UPF
     MD5 check sum: d81a744832360e4a8af0b0b5b123bc2a
     Pseudo is Projector augmented-wave, Zval =  1.0
     Generated using &quot;atomic&quot; code by A. Dal Corso  v.6.3MaX
     Shape of augmentation charge: PSQ
     Using radial grid of  929 points,  2 beta functions with:
                l(1) =   0
                l(2) =   0
     Q(r) pseudized with 0 coefficients

     PseudoPot. # 2 for Zr read from file:
     /home/mehlhorn/pseudos/UiO-66_pbe-spn-kjpaw/Zr.pbe-spn-kjpaw_psl.1.0.0.UPF
     MD5 check sum: 02112c41713a0468aff2bb39ef194e36
     Pseudo is Projector augmented-wave + core cor, Zval = 12.0
     Generated using &quot;atomic&quot; code by A. Dal Corso  v.6.2.2
     Shape of augmentation charge: PSQ
     Using radial grid of 1225 points,  6 beta functions with:
                l(1) =   0
                l(2) =   0
                l(3) =   1
                l(4) =   1
                l(5) =   2
                l(6) =   2
     Q(r) pseudized with 0 coefficients

     PseudoPot. # 3 for C  read from file:
     /home/mehlhorn/pseudos/UiO-66_pbe-spn-kjpaw/C.pbe-n-kjpaw_psl.1.0.0.UPF
     MD5 check sum: 5f16ad9a65e90284d1d834d4ab3b0f7d
     Pseudo is Projector augmented-wave + core cor, Zval =  4.0
     Generated using &quot;atomic&quot; code by A. Dal Corso  v.6.3
     Shape of augmentation charge: PSQ
     Using radial grid of 1073 points,  4 beta functions with:
                l(1) =   0
                l(2) =   0
                l(3) =   1
                l(4) =   1
     Q(r) pseudized with 0 coefficients

     PseudoPot. # 4 for O  read from file:
     /home/mehlhorn/pseudos/UiO-66_pbe-spn-kjpaw/O.pbe-n-kjpaw_psl.1.0.0.UPF
     MD5 check sum: e99d9cef9b487d1ca56f5b95ecd0fd7a
     Pseudo is Projector augmented-wave + core cor, Zval =  6.0
     Generated using &quot;atomic&quot; code by A. Dal Corso  v.6.3
     Shape of augmentation charge: PSQ
     Using radial grid of 1095 points,  4 beta functions with:
                l(1) =   0
                l(2) =   0
                l(3) =   1
                l(4) =   1
     Q(r) pseudized with 0 coefficients

     atomic species   valence    mass     pseudopotential
     H                 1.00     1.00750     H ( 1.00)
     Zr               12.00    91.22400     Zr( 1.00)
     C                 4.00    12.01060     C ( 1.00)
     O                 6.00    15.99900     O ( 1.00)

      2 Sym. Ops., with inversion, found

   Cartesian axes

     site n.     atom                  positions (alat units)
         1        Zr     tau(   1) = (   0.9851018   0.1390969   0.1016593  )
         2        Zr     tau(   2) = (   0.9592011   1.0218154   0.7299553  )
         3        Zr     tau(   3) = (   0.5914383   0.8003192   0.0989921  )
         4        Zr     tau(   4) = (   1.3528646   0.3605937   0.7326217  )
         5        Zr     tau(   5) = (   0.5897545   0.3540447   0.7259131  )
         6        Zr     tau(   6) = (   1.3545479   0.8068685   0.1057015  )
         7        O      tau(   7) = (   1.0813101   0.2536819   0.0705312  )
         8        O      tau(   8) = (   0.8629933   0.9072313   0.7610834  )
         9        O      tau(   9) = (   0.6435861   0.8815048   0.2175001  )
        10        O      tau(  10) = (   1.3007173   0.2794084   0.6141145  )
        11        O      tau(  11) = (   0.7362658   0.3343331   0.7646523  )
        12        O      tau(  12) = (   1.2080376   0.8265801   0.0669623  )
        13        O      tau(  13) = (   1.2129379   0.3069142   0.7631490  )
        14        O      tau(  14) = (   0.7313655   0.8539990   0.0684656  )
        15        O      tau(  15) = (   1.2984098   0.6781686   0.0450558  )
        16        O      tau(  16) = (   0.6458936   0.4827446   0.7865588  )
        17        O      tau(  17) = (   0.8455690   1.0192797   0.6276114  )
        18        O      tau(  18) = (   1.0987343   0.1416336   0.2040032  )
        19        O      tau(  19) = (   1.0496388   1.0173777   0.6102290  )
        20        O      tau(  20) = (   0.8946646   0.1435355   0.2213856  )
        21        O      tau(  21) = (   1.2947158   0.4946601   0.7669425  )
        22        O      tau(  22) = (   0.6495875   0.6662531   0.0646721  )
        23        O      tau(  23) = (   1.3935433   0.7198012   0.2215967  )
        24        O      tau(  24) = (   0.5507601   0.4411120   0.6100179  )
        25        O      tau(  25) = (   0.5500568   0.7116447   0.2154460  )
        26        O      tau(  26) = (   1.3942466   0.4492685   0.6161686  )
        27        O      tau(  27) = (   0.6420736   0.2788428   0.6044852  )
        28        O      tau(  28) = (   1.3022298   0.8820704   0.2271294  )
        29        O      tau(  29) = (   0.8874086   0.2511721   0.0695253  )
        30        O      tau(  30) = (   1.0568948   0.9097412   0.7620893  )
        31        O      tau(  31) = (   0.8779266   0.0527475   0.0396758  )
        32        O      tau(  32) = (   1.0663768   1.1081657   0.7919388  )
        33        O      tau(  33) = (   0.4644754   0.7469889   0.0371773  )
        34        O      tau(  34) = (   1.4798280   0.4139243   0.7944373  )
        35        O      tau(  35) = (   0.4628985   0.2781802   0.6953083  )
        36        O      tau(  36) = (   1.4814049   0.8827330   0.1363062  )
        37        C      tau(  37) = (   1.3136567   0.9631137   0.2571892  )
        38        C      tau(  38) = (   0.6306467   0.1977995   0.5744254  )
        39        C      tau(  39) = (   1.1103247   0.8939305   0.8291503  )
        40        C      tau(  40) = (   0.8339786   0.2669827   0.0024643  )
        41        C      tau(  41) = (   1.4710132   0.4685971   0.5796208  )
        42        C      tau(  42) = (   0.4732901   0.6923161   0.2519937  )
        43        C      tau(  43) = (   0.8010212   0.8977785   0.8217204  )
        44        C      tau(  44) = (   1.1432822   0.2631347   0.0098941  )
        45        C      tau(  45) = (   1.3191843   0.1990592   0.5856550  )
        46        C      tau(  46) = (   0.6251191   0.9618540   0.2459596  )
        47        C      tau(  47) = (   1.1703180   0.8678827   0.0000415  )
        48        C      tau(  48) = (   0.7739854   0.2930305   0.8315731  )
        49        C      tau(  49) = (   1.1899776   0.3542054   0.0042454  )
        50        C      tau(  50) = (   0.7543257   0.8067079   0.8273692  )
        51        C      tau(  51) = (   0.6683575   0.9915969   0.3340054  )
        52        C      tau(  52) = (   1.2759459   0.1693163   0.4976092  )
        53        C      tau(  53) = (   0.8763083   0.2870094   0.8314054  )
        54        C      tau(  54) = (   1.0679951   0.8739039   0.0002092  )
        55        C      tau(  55) = (   0.6844868   0.1687764   0.4922590  )
        56        C      tau(  56) = (   1.2598166   0.9921369   0.3393556  )
        57        C      tau(  57) = (   0.7828110   0.3557143   0.0014204  )
        58        C      tau(  58) = (   1.1614924   0.8051989   0.8301942  )
        59        C      tau(  59) = (   0.4732821   0.6341984   0.3363424  )
        60        C      tau(  60) = (   1.4710213   0.5267149   0.4952722  )
[...]
        94        H      tau(  94) = (   1.3245509   0.5432790   0.4945685  )
        95        H      tau(  95) = (   0.7498631   0.2999314   0.4763503  )
        96        H      tau(  96) = (   1.1944402   0.8609818   0.3552643  )
        97        H      tau(  97) = (   0.7299019   0.8600999   0.3593414  )
        98        H      tau(  98) = (   1.2144015   0.3008133   0.4722732  )
        99        H      tau(  99) = (   0.8893757   0.3498776   0.6987484  )
       100        H      tau( 100) = (   1.0549277   0.8110356   0.1328662  )
       101        H      tau( 101) = (   1.1034130   0.4156953   0.1064558  )
       102        H      tau( 102) = (   0.8408904   0.7452179   0.7251588  )
       103        H      tau( 103) = (   0.8040115   0.9099254   0.5062599  )
       104        H      tau( 104) = (   1.1402919   0.2509879   0.3253547  )
       105        H      tau( 105) = (   1.0611027   0.3415250   0.6986541  )
       106        H      tau( 106) = (   0.8832007   0.8193882   0.1329604  )
[...]
H                0.1184264766        0.8402209079        0.6087697719
H                0.8815735234        0.1597790921        0.3912302281
H                0.6087705061        0.1184249364        0.8402209001
H                0.3912294939        0.8815750636        0.1597790999
H                0.8402218437        0.6087679610        0.1184279177
H                0.1597781563        0.3912320390        0.8815720823

     Writing config-only to output data dir ./pwscf.save/ :
     XML data file
     NEW-OLD atomic charge density approx. for the potential

[...]

     Self-consistent Calculation

[...]

     Threshold (ethr) on eigenvalues was too large:
     Diagonalizing with lowered threshold

     Davidson diagonalization with overlap
     ethr =  7.64E-12,  avg # of iterations = 11.0

[...]

     total energy              =   -4009.17617588 Ry
     estimated scf accuracy    <          4.0E-10 Ry

     iteration #  6     ecut=   100.00 Ry     beta= 0.70
     Davidson diagonalization with overlap
     ethr =  1.00E-13,  avg # of iterations =  8.0

[...]

     End of self-consistent calculation

          k = 0.0000 0.0000 0.0000 (129138 PWs)   bands (ev):

   -49.6205 -49.6042 -49.6040 -49.5920 -49.5900 -49.5898 -28.1092 -28.0061
   -28.0061 -27.9126 -27.9126 -27.9049 -27.7774 -27.7327 -27.7326 -27.7262
   -27.7261 -27.6994 -27.6270 -27.6270 -27.5913 -27.5779 -27.5777 -27.5772
   -22.8406 -22.7937 -22.7937 -22.7879 -22.7879 -22.7625 -22.5853 -22.5787
   -22.5213 -22.5212 -22.5190 -22.5189 -20.5538 -20.5375 -20.5375 -20.5081
   -20.5080 -20.4724 -20.3480 -20.3479 -20.3247 -20.3246 -20.2412 -20.2372
   -17.9984 -17.7660 -17.7660 -17.5718 -17.5718 -17.5294 -17.3934 -17.3923
   -17.3923 -17.2150 -17.2150 -17.2128 -15.0514 -15.0514 -15.0419 -14.8631
   -14.8424 -14.8424 -14.4898 -14.4876 -14.4875 -14.3154 -14.3154 -14.3133
   -12.2924 -12.2561 -12.2561 -12.0960 -12.0373 -12.0373 -10.9649 -10.9649
   -10.9535 -10.7877 -10.7876 -10.7710 -10.2332 -10.2331 -10.1517 -10.0301
    -9.8561  -9.8561  -9.6170  -9.5579  -9.5579  -9.4481  -9.3785  -9.3785
    -8.7854  -8.6131  -8.5384  -8.5384  -8.3961  -8.3961  -8.3558  -8.1983
    -8.1982  -8.1507  -8.1507  -7.8705  -7.8685  -7.8685  -7.7643  -7.7643
    -7.6646  -7.6497  -7.6496  -7.6411  -7.5399  -7.3871  -7.3871  -7.2555
    -7.1564  -6.9187  -6.9186  -6.8603  -6.8333  -6.8333  -6.8332  -6.7379
    -6.7379  -6.7009  -6.6903  -6.6903  -6.6687  -6.6686  -6.6575  -6.5710
    -6.5359  -6.5358  -6.5136  -6.4543  -6.4265  -6.4265  -6.3488  -6.3488
    -6.2164  -6.1898  -6.1897  -6.0324  -6.0323  -6.0150  -5.7307  -5.6369
    -5.6368  -5.4605  -5.2510  -5.2510  -5.1348  -5.0027  -4.9596  -4.9596
    -4.8929  -4.8929  -4.8927  -4.8927  -4.8691  -4.7845  -4.7700  -4.7700
    -4.7350  -4.2532  -4.2532  -4.2005  -4.1520  -4.1520  -4.1520  -4.1465
    -4.1464  -3.9888  -3.9888  -3.9786  -3.9786  -3.9606  -3.8067  -3.6441
    -3.6441  -3.6131  -3.5231  -3.4054  -3.3739  -3.3738  -3.3008  -3.2437
    -3.2437  -3.2087  -3.1696  -3.1695  -3.0841  -3.0441  -3.0441  -2.9810
    -2.9810  -2.9249  -2.9249  -2.8196  -2.7491  -2.6859  -2.6858  -2.6854
    -2.6392  -2.6392  -2.5842  -2.5841  -2.5339  -2.5326  -2.5326  -2.4850
    -2.4287  -2.4287  -2.3942  -2.3814  -2.3799  -2.3754  -2.3753  -2.3466
    -2.3466  -2.2880  -2.2411  -2.2410  -2.1762  -2.1762  -2.1594  -1.6353
    -1.6353  -1.4999

     highest occupied level (ev):    -1.4999

!    total energy              =   -4009.17617588 Ry
     total all-electron energy =    -51389.593282 Ry
     estimated scf accuracy    <          3.1E-11 Ry

     The total energy is the sum of the following terms:
     one-electron contribution =   -6099.11910785 Ry
     hartree contribution      =    3180.99506808 Ry
     xc contribution           =    -570.37426660 Ry
     ewald contribution        =    1323.03872312 Ry
     one-center paw contrib.   =   -1843.71659263 Ry

     convergence has been achieved in   6 iterations

     negative rho (up, down):  8.673E-05 0.000E+00

     Forces acting on atoms (cartesian axes, Ry/au):

     atom    1 type  2   force =     0.00001337    0.00001149    0.00000915
     atom    2 type  2   force =    -0.00001337   -0.00001149   -0.00000915
     atom    3 type  2   force =    -0.00000746    0.00001463   -0.00001318
     atom    4 type  2   force =     0.00000746   -0.00001463    0.00001318
     atom    5 type  2   force =     0.00000478    0.00000958    0.00000639
     atom    6 type  2   force =    -0.00000478   -0.00000958   -0.00000639
     atom    7 type  4   force =     0.00000572   -0.00001015   -0.00000353
     atom    8 type  4   force =    -0.00000572    0.00001015    0.00000353
     atom    9 type  4   force =     0.00001561   -0.00005944   -0.00003025
     atom   10 type  4   force =    -0.00001561    0.00005944    0.00003025
     atom   11 type  4   force =     0.00000023   -0.00000627    0.00002187
     atom   12 type  4   force =    -0.00000023    0.00000627   -0.00002187
     atom   13 type  4   force =     0.00001540    0.00004267   -0.00001842
     atom   14 type  4   force =    -0.00001540   -0.00004267    0.00001842
     atom   15 type  4   force =     0.00000870    0.00000528    0.00003779
     atom   16 type  4   force =    -0.00000870   -0.00000528   -0.00003779
     atom   17 type  4   force =     0.00000413    0.00003239   -0.00003122
     atom   18 type  4   force =    -0.00000413   -0.00003239    0.00003122
     atom   19 type  4   force =     0.00000025    0.00000421    0.00000965
     atom   20 type  4   force =    -0.00000025   -0.00000421   -0.00000965
     atom   21 type  4   force =     0.00000099   -0.00003624   -0.00004168
     atom   22 type  4   force =    -0.00000099    0.00003624    0.00004168
     atom   23 type  4   force =     0.00002822    0.00000299    0.00000169
     atom   24 type  4   force =    -0.00002822   -0.00000299   -0.00000169
     atom   25 type  4   force =     0.00005349    0.00001679   -0.00002469
     atom   26 type  4   force =    -0.00005349   -0.00001679    0.00002469
     atom   27 type  4   force =     0.00000410    0.00002147    0.00001190
     atom   28 type  4   force =    -0.00000410   -0.00002147   -0.00001190
     atom   29 type  4   force =    -0.00001710    0.00000194   -0.00002907
     atom   30 type  4   force =     0.00001710   -0.00000194    0.00002907
     atom   31 type  4   force =     0.00000290   -0.00002305   -0.00002456
     atom   32 type  4   force =    -0.00000290    0.00002305    0.00002456
     atom   33 type  4   force =    -0.00001173    0.00001734   -0.00001327
     atom   34 type  4   force =     0.00001173   -0.00001734    0.00001327
     atom   35 type  4   force =    -0.00002777    0.00000154    0.00001944
     atom   36 type  4   force =     0.00002777   -0.00000154   -0.00001944
     atom   37 type  3   force =     0.00001402    0.00000915   -0.00001615
     atom   38 type  3   force =    -0.00001402   -0.00000915    0.00001615
     atom   39 type  3   force =    -0.00005285   -0.00000681   -0.00008080
     atom   40 type  3   force =     0.00005285    0.00000681    0.00008080
     atom   41 type  3   force =     0.00007553   -0.00001236    0.00000559
     atom   42 type  3   force =    -0.00007553    0.00001236   -0.00000559
     atom   43 type  3   force =     0.00003599    0.00000374   -0.00002324
     atom   44 type  3   force =    -0.00003599   -0.00000374    0.00002324
     atom   45 type  3   force =     0.00005402   -0.00008034    0.00001307
     atom   46 type  3   force =    -0.00005402    0.00008034   -0.00001307
     atom   47 type  3   force =     0.00001791   -0.00002241    0.00005280
     atom   48 type  3   force =    -0.00001791    0.00002241   -0.00005280
     atom   49 type  3   force =     0.00001067   -0.00003049   -0.00001739
     atom   50 type  3   force =    -0.00001067    0.00003049    0.00001739
     atom   51 type  3   force =     0.00001644   -0.00005822   -0.00001390
     atom   52 type  3   force =    -0.00001644    0.00005822    0.00001390
     atom   53 type  3   force =    -0.00002078   -0.00000114    0.00001159
     atom   54 type  3   force =     0.00002078    0.00000114   -0.00001159
     atom   55 type  3   force =    -0.00000851    0.00001588    0.00001798
     atom   56 type  3   force =     0.00000851   -0.00001588   -0.00001798
     atom   57 type  3   force =    -0.00000845   -0.00003019   -0.00004002
     atom   58 type  3   force =     0.00000845    0.00003019    0.00004002
     atom   59 type  3   force =     0.00005859    0.00000833   -0.00002195
     atom   60 type  3   force =    -0.00005859   -0.00000833    0.00002195
[...]
     atom   94 type  1   force =    -0.00000817    0.00001346    0.00000037
     atom   95 type  1   force =    -0.00000123    0.00000073   -0.00001555
     atom   96 type  1   force =     0.00000123   -0.00000073    0.00001555
     atom   97 type  1   force =     0.00002670   -0.00000771    0.00001012
     atom   98 type  1   force =    -0.00002670    0.00000771   -0.00001012
     atom   99 type  1   force =     0.00002580    0.00001367    0.00000235
     atom  100 type  1   force =    -0.00002580   -0.00001367   -0.00000235
     atom  101 type  1   force =     0.00001985    0.00001890    0.00001031
     atom  102 type  1   force =    -0.00001985   -0.00001890   -0.00001031
     atom  103 type  1   force =    -0.00000663    0.00001153   -0.00001459
     atom  104 type  1   force =     0.00000663   -0.00001153    0.00001459
     atom  105 type  1   force =    -0.00000471    0.00000454    0.00000277
     atom  106 type  1   force =     0.00000471   -0.00000454   -0.00000277
     atom  107 type  1   force =    -0.00000045   -0.00000283    0.00000653
     atom  108 type  1   force =     0.00000045    0.00000283   -0.00000653

     Total force =     0.000416     Total SCF correction =     0.000014

     Computing stress (Cartesian axis) and pressure

     negative rho (up, down):  8.673E-05 0.000E+00
          total   stress  (Ry/bohr**3)                   (kbar)     P=       -0.00
  -0.00000003   0.00000003  -0.00000002           -0.01        0.00       -0.00
   0.00000003   0.00000000   0.00000004            0.00        0.00        0.01
  -0.00000002   0.00000004  -0.00000003           -0.00        0.01       -0.01

     Message from routine bfgs:
     history already reset at previous step: exiting
     Energy error            =      5.8E-08 Ry
     Gradient error          =      8.1E-05 Ry/Bohr
     Cell gradient error     =      5.8E-03 kbar

     bfgs failed after   8 scf cycles and   7 bfgs steps, convergence not achieved
     (criteria: energy <  3.6E-06 Ry, force <  1.0E-05 Ry/Bohr, cell <  5.0E-01 kbar)

     End of BFGS Geometry Optimization

     Final enthalpy           =   -4009.1761758841 Ry

     File ./pwscf.bfgs deleted, as requested
Begin final coordinates
     new unit-cell volume =  15305.90574 a.u.^3 (  2268.10123 Ang^3 )
     density =      1.19191 g/cm^3

CELL_PARAMETERS (alat= 27.59009591)
   0.997810689   0.000095007   0.000067698
   0.473417990   0.878351909   0.000067573
   0.473417702   0.282669951   0.831625357

ATOMIC_POSITIONS (crystal)
Zr               0.8730119090        0.1189683950        0.1221827821
Zr               0.1269880910        0.8810306050        0.8778172179
Zr               0.1221828811        0.8730119631        0.1189677154
Zr               0.8778171189        0.1269880369        0.8810312846
Zr               0.1189685450        0.1221828766        0.8730112160
Zr               0.8810304550        0.8778171234        0.1269887840
O                0.9196051423        0.2614956323        0.0847293147
O                0.0803948577        0.7385043677        0.9152706853
O                0.0847281485        0.9196054760        0.2614962093
O                0.9152718515        0.0803945240        0.7385037907
O                0.2614967902        0.0847300441        0.9196021091
O                0.7385032098        0.9152699559        0.0803978909
O                0.7547259632        0.0540522151        0.9177700700
O                0.2452740368        0.9459477849        0.0822299300
O                0.9177684196        0.7547248067        0.0540550275
O                0.0822315804        0.2452751933        0.9459449725
O                0.0540554412        0.9177676956        0.7547253380
O                0.9459445588        0.0822323044        0.2452746620
O                0.2663790385        0.9223132237        0.7338097018
O                0.7336209615        0.0776867763        0.2661902982
O                0.7338091761        0.2663787722        0.9223155585
O                0.2661908239        0.7336212278        0.0776844415
O                0.9223131900        0.7338097222        0.2663790464
O                0.0776868100        0.2661902778        0.7336209536
O                0.0835276546        0.7269660780        0.2590490467
O                0.9164723454        0.2730339220        0.7409509533
O                0.2590486529        0.0835277916        0.7269662301
O                0.7409513471        0.9164722084        0.2730337699
O                0.7269667182        0.2590490585        0.0835295072
O                0.2730332818        0.7409509415        0.9164704928
O                0.8362338899        0.0446360148        0.0476470817
O                0.1637661101        0.9553639852        0.9523529183
O                0.0476462126        0.8362340126        0.0446358457
O                0.9523537874        0.1637659874        0.9553641543
O                0.0446361220        0.0476460327        0.8362344796
O                0.9553638780        0.9523539673        0.1637655204
C                0.6969870816        0.9971093656        0.3091861538
C                0.3030129184        0.0028906344        0.6908138462
C                0.3091861055        0.6969867881        0.9971099048
C                0.6908138945        0.3030132119        0.0028900952
C                0.9971080084        0.3091860352        0.6969869650
C                0.0028919916        0.6908139648        0.3030130350
C               -0.0000753150        0.7042714987        0.9881947388
C                1.0000753150        0.2957285013        0.0118052612
C                0.9881929616       -0.0000727317        0.7042713205
C                0.0118070384        1.0000727317        0.2957286795
C                0.7042715171        0.9881937058       -0.0000738487
C                0.2957284829        0.0118062942        1.0000738487
C                0.9998674480        0.4016157138        0.0050093623
C                0.0001325520        0.5983842862        0.9949906377
C                0.0050082863        0.9998683549        0.4016157063
C                0.9949917137        0.0001316451        0.5983842937
C                0.4016156717        0.0050096757        0.9998669605
C                0.5983843283        0.9949903243        0.0001330395
C                0.4044616385        0.0016336515        0.5919883363
C                0.5955383615        0.9983663485        0.4080116637
C                0.5919883449        0.4044617049        0.0016349968
C                0.4080116551        0.5955382951        0.9983650032
C                0.0016333847        0.5919884639        0.4044618490
C                0.9983666153        0.4080115361        0.5955381510
[...]
H                0.8428860055        0.4271729173        0.5946896391
H                0.4053088775        0.1571132958        0.5728283524
H                0.5946911225        0.8428867042        0.4271716476
H                0.1279189581        0.8403423351        0.4321080579
H                0.8720810419        0.1596576649        0.5678919421
H                0.4321085939        0.1279184395        0.8403415322
H                0.5678914061        0.8720815605        0.1596584678
H                0.8403437191        0.4321059474        0.1279207025
H                0.1596562809        0.5678940526        0.8720792975
H                0.1184264766        0.8402209079        0.6087697719
H                0.8815735234        0.1597790921        0.3912302281
H                0.6087705061        0.1184249364        0.8402209001
H                0.3912294939        0.8815750636        0.1597790999
H                0.8402218437        0.6087679610        0.1184279177
H                0.1597781563        0.3912320390        0.8815720823
End final coordinates

     Writing config-only to output data dir ./pwscf.save/ :
     XML data file

     Writing all to output data dir ./pwscf.save/ :
     XML data file, charge density, pseudopotentials, collected wavefunctions

     General routines

     Parallel routines

   This run was terminated on:   8:29:44   4Jun2025

   JOB DONE.