     Program PHONON v.7.3.1 starts on 16Jun2025 at 11:17:10

     Waiting for input...
     Reading input from standard input

     Reading xml data from directory:

     ./pwscf.save/

     R & G space division:  proc/nbgrp/npool/nimage =     256
     wavefunctions fft division:  task group distribution
                                  #TG    x Z-proc =       8     32
     Subspace diagonalization in iterative solution of the eigenvalue problem:
     one sub-group per band group will be used

     file H.pbe-kjpaw_psl.1.0.0.UPF: wavefunction(s)  1S renormalized
     file Zr.pbe-spn-kjpaw_psl.1.0.0.UPF: wavefunction(s)  4S 4P renormalized
     file C.pbe-n-kjpaw_psl.1.0.0.UPF: wavefunction(s)  2S 2P renormalized
     file O.pbe-n-kjpaw_psl.1.0.0.UPF: wavefunction(s)  2S 2P renormalized

     IMPORTANT: XC functional enforced from input :
     Exchange-correlation= PBE
                           (   1   4   3   4   0   0   0)
     Any further DFT definition will be discarded
     Please, verify this is what you really want

     Using Pencil Decomposition

     negative rho (up, down):  3.878E-05 0.000E+00
     Reading collected, re-writing distributed wavefunctions in ./

     Number and degeneracy of irreps per q-point
       N         xq(1)         xq(2)         xq(3)   N irreps
       1   0.000000000   0.000000000   0.000000000     324
     No degeneracy

     Calculation of q =    0.0000000   0.0000000   0.0000000

     dielectric constant

     bravais-lattice index     =            0
     lattice parameter (alat)  =      27.5901  a.u.
     unit-cell volume          =   15298.4621 (a.u.)^3
     number of atoms/cell      =          108
     number of atomic types    =            4
     kinetic-energy cut-off    =     150.0000  Ry
     charge density cut-off    =     900.0000  Ry
     convergence threshold     =      1.0E-14
     beta                      =       0.7000
     number of iterations used =            4
     Exchange-correlation= PBE
                           (   1   4   3   4   0   0   0)

     celldm(1)=   27.59010  celldm(2)=    0.00000  celldm(3)=    0.00000
     celldm(4)=    0.00000  celldm(5)=    0.00000  celldm(6)=    0.00000

     crystal axes: (cart. coord. in units of alat)
               a(1) = (  0.9976  0.0001  0.0001 )
               a(2) = (  0.4733  0.8782  0.0001 )
               a(3) = (  0.4733  0.2826  0.8315 )

     reciprocal axes: (cart. coord. in units 2 pi/alat)
               b(1) = (  1.0024 -0.5403 -0.3870 )
               b(2) = ( -0.0001  1.1388 -0.3870 )
               b(3) = ( -0.0001 -0.0000  1.2027 )

     Atoms inside the unit cell:

     Cartesian axes

     site n.  atom      mass           positions (alat units)
        1  Zr     91.2240   tau(    1) = (    0.98510    0.13910    0.10166  )
        2  Zr     91.2240   tau(    2) = (    0.95920    1.02182    0.72996  )
        3  Zr     91.2240   tau(    3) = (    0.59144    0.80032    0.09899  )
        4  Zr     91.2240   tau(    4) = (    1.35286    0.36059    0.73262  )
        5  Zr     91.2240   tau(    5) = (    0.58975    0.35404    0.72591  )
        6  Zr     91.2240   tau(    6) = (    1.35455    0.80687    0.10570  )
        7  O      15.9990   tau(    7) = (    1.08131    0.25368    0.07053  )
        8  O      15.9990   tau(    8) = (    0.86299    0.90723    0.76108  )
        9  O      15.9990   tau(    9) = (    0.64359    0.88150    0.21750  )
       10  O      15.9990   tau(   10) = (    1.30072    0.27941    0.61411  )
       11  O      15.9990   tau(   11) = (    0.73627    0.33433    0.76465  )
       12  O      15.9990   tau(   12) = (    1.20804    0.82658    0.06696  )
       13  O      15.9990   tau(   13) = (    1.21294    0.30691    0.76315  )
       14  O      15.9990   tau(   14) = (    0.73137    0.85400    0.06847  )
       15  O      15.9990   tau(   15) = (    1.29841    0.67817    0.04506  )
       16  O      15.9990   tau(   16) = (    0.64589    0.48274    0.78656  )
       17  O      15.9990   tau(   17) = (    0.84557    1.01928    0.62761  )
       18  O      15.9990   tau(   18) = (    1.09873    0.14163    0.20400  )
       19  O      15.9990   tau(   19) = (    1.04964    1.01738    0.61023  )
       20  O      15.9990   tau(   20) = (    0.89466    0.14354    0.22139  )
       21  O      15.9990   tau(   21) = (    1.29472    0.49466    0.76694  )
       22  O      15.9990   tau(   22) = (    0.64959    0.66625    0.06467  )
       23  O      15.9990   tau(   23) = (    1.39354    0.71980    0.22160  )
       24  O      15.9990   tau(   24) = (    0.55076    0.44111    0.61002  )
       25  O      15.9990   tau(   25) = (    0.55006    0.71164    0.21545  )
       26  O      15.9990   tau(   26) = (    1.39425    0.44927    0.61617  )
       27  O      15.9990   tau(   27) = (    0.64207    0.27884    0.60449  )
       28  O      15.9990   tau(   28) = (    1.30223    0.88207    0.22713  )
       29  O      15.9990   tau(   29) = (    0.88741    0.25117    0.06953  )
       30  O      15.9990   tau(   30) = (    1.05689    0.90974    0.76209  )
       31  O      15.9990   tau(   31) = (    0.87793    0.05275    0.03968  )
       32  O      15.9990   tau(   32) = (    1.06638    1.10817    0.79194  )
       33  O      15.9990   tau(   33) = (    0.46448    0.74699    0.03718  )
       34  O      15.9990   tau(   34) = (    1.47983    0.41392    0.79444  )
       35  O      15.9990   tau(   35) = (    0.46290    0.27818    0.69531  )
       36  O      15.9990   tau(   36) = (    1.48140    0.88273    0.13631  )
       37  C      12.0106   tau(   37) = (    1.31366    0.96311    0.25719  )
       38  C      12.0106   tau(   38) = (    0.63065    0.19780    0.57443  )
       39  C      12.0106   tau(   39) = (    1.11032    0.89393    0.82915  )
       40  C      12.0106   tau(   40) = (    0.83398    0.26698    0.00246  )
       41  C      12.0106   tau(   41) = (    1.47101    0.46860    0.57962  )
       42  C      12.0106   tau(   42) = (    0.47329    0.69232    0.25199  )
       43  C      12.0106   tau(   43) = (    0.80102    0.89778    0.82172  )
       44  C      12.0106   tau(   44) = (    1.14328    0.26313    0.00989  )
       45  C      12.0106   tau(   45) = (    1.31918    0.19906    0.58565  )
       46  C      12.0106   tau(   46) = (    0.62512    0.96185    0.24596  )
       47  C      12.0106   tau(   47) = (    1.17032    0.86788    0.00004  )
       48  C      12.0106   tau(   48) = (    0.77399    0.29303    0.83157  )
       49  C      12.0106   tau(   49) = (    1.18998    0.35421    0.00425  )
       50  C      12.0106   tau(   50) = (    0.75433    0.80671    0.82737  )
       51  C      12.0106   tau(   51) = (    0.66836    0.99160    0.33401  )
       52  C      12.0106   tau(   52) = (    1.27595    0.16932    0.49761  )
       53  C      12.0106   tau(   53) = (    0.87631    0.28701    0.83141  )
       54  C      12.0106   tau(   54) = (    1.06800    0.87390    0.00021  )
       55  C      12.0106   tau(   55) = (    0.68449    0.16878    0.49226  )
       56  C      12.0106   tau(   56) = (    1.25982    0.99214    0.33936  )
       57  C      12.0106   tau(   57) = (    0.78281    0.35571    0.00142  )
       58  C      12.0106   tau(   58) = (    1.16149    0.80520    0.83019  )
       59  C      12.0106   tau(   59) = (    0.47328    0.63420    0.33634  )
       60  C      12.0106   tau(   60) = (    1.47102    0.52671    0.49527  )
[...]
       94  H       1.0075   tau(   94) = (    1.32455    0.54328    0.49457  )
       95  H       1.0075   tau(   95) = (    0.74986    0.29993    0.47635  )
       96  H       1.0075   tau(   96) = (    1.19444    0.86098    0.35526  )
       97  H       1.0075   tau(   97) = (    0.72990    0.86010    0.35934  )
       98  H       1.0075   tau(   98) = (    1.21440    0.30081    0.47227  )
       99  H       1.0075   tau(   99) = (    0.88938    0.34988    0.69875  )
      100  H       1.0075   tau(  100) = (    1.05493    0.81104    0.13287  )
      101  H       1.0075   tau(  101) = (    1.10341    0.41570    0.10646  )
      102  H       1.0075   tau(  102) = (    0.84089    0.74522    0.72516  )
      103  H       1.0075   tau(  103) = (    0.80401    0.90993    0.50626  )
      104  H       1.0075   tau(  104) = (    1.14029    0.25099    0.32535  )
      105  H       1.0075   tau(  105) = (    1.06110    0.34153    0.69865  )
      106  H       1.0075   tau(  106) = (    0.88320    0.81939    0.13296  )
      107  H       1.0075   tau(  107) = (    1.18243    0.56819    0.09858  )
      108  H       1.0075   tau(  108) = (    0.76187    0.59272    0.73304  )

     Computing dynamical matrix for
                    q = (   0.0000000   0.0000000   0.0000000 )

      3 Sym.Ops. (with q -> -q+G )

     G cutoff =17353.5844  (  27245 G-vectors)     FFT grid: (270,270,270)
     G cutoff =11569.0563  (  14834 G-vectors)  smooth grid: (216,216,216)
     number of k points=     1
                       cart. coord. in units 2pi/alat
        k(    1) = (   0.0000000   0.0000000   0.0000000), wk =   2.0000000

     PseudoPot. # 1 for H  read from file:
     /home/mehlhorn/pseudos/UiO-66_pbe-spn-kjpaw/H.pbe-kjpaw_psl.1.0.0.UPF
     MD5 check sum: d81a744832360e4a8af0b0b5b123bc2a
     Pseudo is Projector augmented-wave, Zval =  1.0
     Generated using &quot;atomic&quot; code by A. Dal Corso  v.6.3MaX
     Shape of augmentation charge: PSQ
     Using radial grid of  929 points,  2 beta functions with:
                l(1) =   0
                l(2) =   0
     Q(r) pseudized with 0 coefficients

     PseudoPot. # 2 for Zr read from file:
     /home/mehlhorn/pseudos/UiO-66_pbe-spn-kjpaw/Zr.pbe-spn-kjpaw_psl.1.0.0.UPF
     MD5 check sum: 02112c41713a0468aff2bb39ef194e36
     Pseudo is Projector augmented-wave + core cor, Zval = 12.0
     Generated using &quot;atomic&quot; code by A. Dal Corso  v.6.2.2
     Shape of augmentation charge: PSQ
     Using radial grid of 1225 points,  6 beta functions with:
                l(1) =   0
                l(2) =   0
                l(3) =   1
                l(4) =   1
                l(5) =   2
                l(6) =   2
     Q(r) pseudized with 0 coefficients

     PseudoPot. # 3 for C  read from file:
     /home/mehlhorn/pseudos/UiO-66_pbe-spn-kjpaw/C.pbe-n-kjpaw_psl.1.0.0.UPF
     MD5 check sum: 5f16ad9a65e90284d1d834d4ab3b0f7d
     Pseudo is Projector augmented-wave + core cor, Zval =  4.0
     Generated using &quot;atomic&quot; code by A. Dal Corso  v.6.3
     Shape of augmentation charge: PSQ
     Using radial grid of 1073 points,  4 beta functions with:
                l(1) =   0
                l(2) =   0
                l(3) =   1
                l(4) =   1
     Q(r) pseudized with 0 coefficients

     PseudoPot. # 4 for O  read from file:
     /home/mehlhorn/pseudos/UiO-66_pbe-spn-kjpaw/O.pbe-n-kjpaw_psl.1.0.0.UPF
     MD5 check sum: e99d9cef9b487d1ca56f5b95ecd0fd7a
     Pseudo is Projector augmented-wave + core cor, Zval =  6.0
     Generated using &quot;atomic&quot; code by A. Dal Corso  v.6.3
     Shape of augmentation charge: PSQ
     Using radial grid of 1095 points,  4 beta functions with:
                l(1) =   0
[...]
      E*y (        0.23951        2.11491        0.73072 )
      E*z (       -1.60648        0.70488        2.58749 )
           atom   38  C     Mean Z*:        2.09619
      E*x (        1.58616        0.21072       -1.54747 )
      E*y (        0.23951        2.11491        0.73072 )
      E*z (       -1.60648        0.70488        2.58749 )
           atom   39  C     Mean Z*:        2.09617
      E*x (        1.47660       -1.38492        0.69378 )
      E*y (       -1.33831        3.08541        0.41836 )
      E*z (        0.73850        0.44682        1.72652 )
           atom   40  C     Mean Z*:        2.09617
      E*x (        1.47660       -1.38492        0.69378 )
      E*y (       -1.33831        3.08541        0.41836 )
      E*z (        0.73850        0.44682        1.72652 )
           atom   41  C     Mean Z*:        2.09619
      E*x (        2.18395       -0.11256       -0.04900 )
      E*y (       -0.16984        1.42340       -1.71675 )
      E*z (       -0.05995       -1.67706        2.68121 )
           atom   42  C     Mean Z*:        2.09619
      E*x (        2.18395       -0.11256       -0.04900 )
      E*y (       -0.16984        1.42340       -1.71675 )
      E*z (       -0.05995       -1.67706        2.68121 )
           atom   43  C     Mean Z*:        2.02746
      E*x (        1.50680        1.04200       -0.89772 )
      E*y (        0.89973        3.19293        0.30458 )
      E*z (       -0.95740        0.44132        1.38265 )
           atom   44  C     Mean Z*:        2.02746
      E*x (        1.50680        1.04200       -0.89772 )
      E*y (        0.89973        3.19293        0.30458 )
      E*z (       -0.95740        0.44132        1.38265 )
           atom   45  C     Mean Z*:        2.02745
      E*x (        1.25930       -0.48362        1.41105 )
      E*y (       -0.38135        2.04478        0.68846 )
      E*z (        1.23587        0.65162        2.77827 )
           atom   46  C     Mean Z*:        2.02745
      E*x (        1.25930       -0.48362        1.41105 )
      E*y (       -0.38135        2.04478        0.68846 )
      E*z (        1.23587        0.65162        2.77827 )
           atom   47  C     Mean Z*:        2.02744
      E*x (        3.62430       -0.22697       -0.17777 )
      E*y (       -0.09403        0.74552       -0.94009 )
      E*z (       -0.07270       -0.82269        1.71249 )
           atom   48  C     Mean Z*:        2.02744
      E*x (        3.62430       -0.22697       -0.17777 )
      E*y (       -0.09403        0.74552       -0.94009 )
      E*z (       -0.07270       -0.82269        1.71249 )
           atom   49  C     Mean Z*:       -0.35422
      E*x (       -0.20612       -0.42790        0.04077 )
      E*y (       -0.40977       -0.82880        0.02462 )
      E*z (        0.03570        0.01401       -0.02773 )
           atom   50  C     Mean Z*:       -0.35422
      E*x (       -0.20612       -0.42790        0.04077 )
      E*y (       -0.40977       -0.82880        0.02462 )
      E*z (        0.03570        0.01401       -0.02773 )
           atom   51  C     Mean Z*:       -0.35421
      E*x (       -0.20533       -0.09844       -0.40442 )
      E*y (       -0.09951       -0.09967       -0.25721 )
      E*z (       -0.38619       -0.24562       -0.75763 )
           atom   52  C     Mean Z*:       -0.35421
      E*x (       -0.20533       -0.09844       -0.40442 )
      E*y (       -0.09951       -0.09967       -0.25721 )
      E*z (       -0.38619       -0.24562       -0.75763 )
           atom   53  C     Mean Z*:       -0.35421
      E*x (       -1.03845        0.05126        0.02357 )
      E*y (        0.03436       -0.00957        0.02925 )
      E*z (        0.01010        0.02868       -0.01462 )
           atom   54  C     Mean Z*:       -0.35421
      E*x (       -1.03845        0.05126        0.02357 )
      E*y (        0.03436       -0.00957        0.02925 )
      E*z (        0.01010        0.02868       -0.01462 )
           atom   55  C     Mean Z*:       -0.38220
      E*x (       -0.31774        0.16444        0.46338 )
      E*y (        0.15060       -0.10124       -0.25785 )
      E*z (        0.48657       -0.24537       -0.72761 )
           atom   56  C     Mean Z*:       -0.38220
      E*x (       -0.31774        0.16444        0.46338 )
      E*y (        0.15060       -0.10124       -0.25785 )
      E*z (        0.48657       -0.24537       -0.72761 )
           atom   57  C     Mean Z*:       -0.38218
      E*x (       -0.28600        0.49202        0.00097 )
      E*y (        0.47450       -0.84776        0.00696 )
      E*z (       -0.01978       -0.00520       -0.01279 )
           atom   58  C     Mean Z*:       -0.38218
      E*x (       -0.28600        0.49202        0.00097 )
      E*y (        0.47450       -0.84776        0.00696 )
      E*z (       -0.01978       -0.00520       -0.01279 )
           atom   59  C     Mean Z*:       -0.38221
      E*x (       -0.01841       -0.01026       -0.00781 )
      E*y (        0.01506       -0.36630        0.53307 )
      E*z (       -0.00184        0.51859       -0.76190 )
           atom   60  C     Mean Z*:       -0.38221
      E*x (       -0.01841       -0.01026       -0.00781 )
      E*y (        0.01506       -0.36630        0.53307 )
      E*z (       -0.00184        0.51859       -0.76190 )
           atom   61  C     Mean Z*:       -0.06110
      E*x (       -0.02115        0.09251       -0.04192 )
      E*y (       -0.07166       -0.11254        0.08358 )
      E*z (       -0.10702       -0.07901       -0.04962 )
           atom   62  C     Mean Z*:       -0.06110
      E*x (       -0.02115        0.09251       -0.04192 )
      E*y (       -0.07166       -0.11254        0.08358 )
      E*z (       -0.10702       -0.07901       -0.04962 )
           atom   63  C     Mean Z*:       -0.06109
      E*x (       -0.10327       -0.08014       -0.03889 )
      E*y (        0.03434        0.02740        0.13578 )
      E*z (        0.04046       -0.05975       -0.10741 )
           atom   64  C     Mean Z*:       -0.06109
      E*x (       -0.10327       -0.08014       -0.03889 )
      E*y (        0.03434        0.02740        0.13578 )
      E*z (        0.04046       -0.05975       -0.10741 )
           atom   65  C     Mean Z*:       -0.06110
      E*x (       -0.08326        0.03857       -0.05344 )
      E*y (       -0.07340       -0.09032       -0.04318 )
      E*z (        0.15803       -0.06300       -0.00973 )
           atom   66  C     Mean Z*:       -0.06110
      E*x (       -0.08326        0.03857       -0.05344 )
      E*y (       -0.07340       -0.09032       -0.04318 )
      E*z (        0.15803       -0.06300       -0.00973 )
           atom   67  C     Mean Z*:       -0.06466
      E*x (       -0.08487       -0.05138        0.04252 )
      E*y (        0.06120       -0.09145       -0.04332 )
      E*z (       -0.16421       -0.04214       -0.01767 )
           atom   68  C     Mean Z*:       -0.06466
      E*x (       -0.08487       -0.05138        0.04252 )
      E*y (        0.06120       -0.09145       -0.04332 )
      E*z (       -0.16421       -0.04214       -0.01767 )
           atom   69  C     Mean Z*:       -0.06464
      E*x (       -0.10567       -0.12457       -0.07867 )
      E*y (        0.03495       -0.03049       -0.02840 )
      E*z (        0.00241        0.12457       -0.05775 )
           atom   70  C     Mean Z*:       -0.06464
      E*x (       -0.10567       -0.12457       -0.07867 )
      E*y (        0.03495       -0.03049       -0.02840 )
      E*z (        0.00241        0.12457       -0.05775 )
           atom   71  C     Mean Z*:       -0.06465
      E*x (       -0.08586        0.00286        0.06422 )
      E*y (       -0.12525       -0.04548       -0.13986 )
      E*z (       -0.01113        0.04271       -0.06261 )
           atom   72  C     Mean Z*:       -0.06465
      E*x (       -0.08586        0.00286        0.06422 )
      E*y (       -0.12525       -0.04548       -0.13986 )
      E*z (       -0.01113        0.04271       -0.06261 )
           atom   73  C     Mean Z*:       -0.05959
      E*x (       -0.05592       -0.01551       -0.07229 )
      E*y (        0.13294       -0.04335       -0.13183 )
      E*z (       -0.00784        0.05551       -0.07949 )
           atom   74  C     Mean Z*:       -0.05959
      E*x (       -0.05592       -0.01551       -0.07229 )
      E*y (        0.13294       -0.04335       -0.13183 )
      E*z (       -0.00784        0.05551       -0.07949 )
           atom   75  C     Mean Z*:       -0.05961
      E*x (       -0.10522        0.06193        0.06957 )
      E*y (       -0.04686       -0.04975       -0.02778 )
      E*z (       -0.03848        0.16656       -0.02387 )
           atom   76  C     Mean Z*:       -0.05961
      E*x (       -0.10522        0.06193        0.06957 )
      E*y (       -0.04686       -0.04975       -0.02778 )
      E*z (       -0.03848        0.16656       -0.02387 )
           atom   77  C     Mean Z*:       -0.05960
      E*x (        0.00283       -0.10975        0.14422 )
      E*y (        0.02757       -0.09230       -0.03655 )
      E*z (       -0.05921       -0.00442       -0.08933 )
           atom   78  C     Mean Z*:       -0.05960
      E*x (        0.00283       -0.10975        0.14422 )
      E*y (        0.02757       -0.09230       -0.03655 )
      E*z (       -0.05921       -0.00442       -0.08933 )
           atom   79  C     Mean Z*:       -0.05674
      E*x (        0.00494        0.09192       -0.15444 )
      E*y (       -0.05224       -0.10508       -0.00430 )
      E*z (        0.04607       -0.03308       -0.07008 )
           atom   80  C     Mean Z*:       -0.05674
      E*x (        0.00494        0.09192       -0.15444 )
      E*y (       -0.05224       -0.10508       -0.00430 )
      E*z (        0.04607       -0.03308       -0.07008 )
           atom   81  C     Mean Z*:       -0.05676
      E*x (       -0.10237        0.08462        0.02976 )
      E*y (       -0.05883        0.02217        0.13924 )
      E*z (       -0.04026       -0.05132       -0.09009 )
           atom   82  C     Mean Z*:       -0.05676
      E*x (       -0.10237        0.08462        0.02976 )
      E*y (       -0.05883        0.02217        0.13924 )
      E*z (       -0.04026       -0.05132       -0.09009 )
           atom   83  C     Mean Z*:       -0.05676
      E*x (       -0.06378       -0.07785        0.01037 )
      E*y (        0.03463       -0.09028        0.07455 )
      E*z (        0.12440       -0.11560       -0.01622 )
           atom   84  C     Mean Z*:       -0.05676
      E*x (       -0.06378       -0.07785        0.01037 )
      E*y (        0.03463       -0.09028        0.07455 )
      E*z (        0.12440       -0.11560       -0.01622 )
           atom   85  H     Mean Z*:        0.09995
      E*x (        0.15212       -0.01953       -0.02159 )
      E*y (       -0.03270        0.10521       -0.09692 )
      E*z (       -0.03973       -0.07644        0.04253 )
           atom   86  H     Mean Z*:        0.09995
      E*x (        0.15212       -0.01953       -0.02159 )
      E*y (       -0.03270        0.10521       -0.09692 )
      E*z (       -0.03973       -0.07644        0.04253 )
           atom   87  H     Mean Z*:        0.09995
      E*x (        0.00003        0.03381       -0.04016 )
      E*y (        0.05523        0.14830        0.00852 )
      E*z (       -0.06134        0.01240        0.15153 )
           atom   88  H     Mean Z*:        0.09995
      E*x (        0.00003        0.03381       -0.04016 )
      E*y (        0.05523        0.14830        0.00852 )
      E*z (       -0.06134        0.01240        0.15153 )
           atom   89  H     Mean Z*:        0.09994
      E*x (        0.09394       -0.09093        0.02947 )
      E*y (       -0.07776        0.06364        0.03517 )
      E*z (        0.03891        0.06087        0.14225 )
           atom   90  H     Mean Z*:        0.09994
      E*x (        0.09394       -0.09093        0.02947 )
      E*y (       -0.07776        0.06364        0.03517 )
      E*z (        0.03891        0.06087        0.14225 )
           atom   91  H     Mean Z*:        0.09948
      E*x (        0.09910       -0.00026       -0.09881 )
      E*y (        0.01023        0.15797        0.02884 )
      E*z (       -0.08692        0.00485        0.04136 )
           atom   92  H     Mean Z*:        0.09948
      E*x (        0.09910       -0.00026       -0.09881 )
      E*y (        0.01023        0.15797        0.02884 )
      E*z (       -0.08692        0.00485        0.04136 )
           atom   93  H     Mean Z*:        0.09948
      E*x (       -0.00044       -0.02538        0.04743 )
      E*y (       -0.04002        0.16323        0.01027 )
      E*z (        0.07146        0.00426        0.13564 )
           atom   94  H     Mean Z*:        0.09948
      E*x (       -0.00044       -0.02538        0.04743 )
      E*y (       -0.04002        0.16323        0.01027 )
      E*z (        0.07146        0.00426        0.13564 )
           atom   95  H     Mean Z*:        0.09948
      E*x (        0.14889       -0.02568       -0.00881 )
      E*y (       -0.04372       -0.00639       -0.03988 )
      E*z (       -0.01376       -0.06174        0.15595 )
           atom   96  H     Mean Z*:        0.09948
      E*x (        0.14889       -0.02568       -0.00881 )
      E*y (       -0.04372       -0.00639       -0.03988 )
      E*z (       -0.01376       -0.06174        0.15595 )
           atom   97  H     Mean Z*:        0.09708
      E*x (        0.14393        0.02570        0.00813 )
      E*y (        0.04495       -0.01037       -0.03587 )
      E*z (        0.01118       -0.05623        0.15770 )
           atom   98  H     Mean Z*:        0.09708
      E*x (        0.14393        0.02570        0.00813 )
      E*y (        0.04495       -0.01037       -0.03587 )
      E*z (        0.01118       -0.05623        0.15770 )
           atom   99  H     Mean Z*:        0.09709
      E*x (        0.13650        0.02905       -0.07587 )
      E*y (        0.01997        0.11967        0.06555 )
      E*z (       -0.04977        0.07108        0.03509 )
           atom  100  H     Mean Z*:        0.09709
      E*x (        0.13650        0.02905       -0.07587 )
      E*y (        0.01997        0.11967        0.06555 )
      E*z (       -0.04977        0.07108        0.03509 )
           atom  101  H     Mean Z*:        0.09709
      E*x (        0.05387        0.00383        0.09743 )
      E*y (       -0.01796        0.16811        0.00647 )
      E*z (        0.08450       -0.00587        0.06930 )
           atom  102  H     Mean Z*:        0.09709
      E*x (        0.05387        0.00383        0.09743 )
      E*y (       -0.01796        0.16811        0.00647 )
      E*z (        0.08450       -0.00587        0.06930 )
           atom  103  H     Mean Z*:        0.09758
      E*x (        0.10356        0.08284       -0.03707 )
      E*y (        0.07034        0.06329        0.04287 )
      E*z (       -0.03738        0.06991        0.12590 )
           atom  104  H     Mean Z*:        0.09758
      E*x (        0.10356        0.08284       -0.03707 )
      E*y (        0.07034        0.06329        0.04287 )
      E*z (       -0.03738        0.06991        0.12590 )
           atom  105  H     Mean Z*:        0.09759
      E*x (        0.13362       -0.02896        0.07734 )
      E*y (       -0.02464        0.12372        0.06097 )
      E*z (        0.04797        0.06346        0.03542 )
           atom  106  H     Mean Z*:        0.09759
      E*x (        0.13362       -0.02896        0.07734 )
      E*y (       -0.02464        0.12372        0.06097 )
      E*z (        0.04797        0.06346        0.03542 )
           atom  107  H     Mean Z*:        0.09758
      E*x (        0.13633        0.03604        0.04340 )
      E*y (        0.06246        0.07975       -0.08281 )
      E*z (        0.04762       -0.06971        0.07666 )
           atom  108  H     Mean Z*:        0.09758
      E*x (        0.13633        0.03604        0.04340 )
      E*y (        0.06246        0.07975       -0.08281 )
      E*z (        0.04762       -0.06971        0.07666 )

     INITIALIZATION:

     DIELECTRIC CONSTANT AND EFFECTIVE CHARGES:

                                        0.00s GPU  (     324 calls)

      General routines

      Additional routines
                                        0.00s GPU  (    2035 calls)
                                        0.00s GPU  (    2035 calls)

   This run was terminated on:  22:50:57  16Jun2025

   JOB DONE.