     Program PWSCF v.7.3.1 starts on 16Jun2025 at 10:49:32

     Waiting for input...
     Reading input from standard input
     Message from routine read_cards :
     DEPRECATED: no units specified in CELL_PARAMETERS card

     Current dimensions of program PWSCF are:
     Max number of different atomic species (ntypx) = 10
     Max number of k-points (npk) =  40000
     Max angular momentum in pseudopotentials (lmaxx) =  4
     file H.pbe-kjpaw_psl.1.0.0.UPF: wavefunction(s)  1S renormalized
     file Zr.pbe-spn-kjpaw_psl.1.0.0.UPF: wavefunction(s)  4S 4P renormalized
     file C.pbe-n-kjpaw_psl.1.0.0.UPF: wavefunction(s)  2S 2P renormalized
     file O.pbe-n-kjpaw_psl.1.0.0.UPF: wavefunction(s)  2S 2P renormalized

     IMPORTANT: XC functional enforced from input :
     Exchange-correlation= PBE
                           (   1   4   3   4   0   0   0)
     Any further DFT definition will be discarded
     Please, verify this is what you really want

     Message from routine setup:
     using ibrav=0 with symmetry is DISCOURAGED, use correct ibrav instead

     R & G space division:  proc/nbgrp/npool/nimage =     256
     wavefunctions fft division:  task group distribution
                                  #TG    x Z-proc =       8     32
     Subspace diagonalization in iterative solution of the eigenvalue problem:
     one sub-group per band group will be used

     Using Pencil Decomposition

     Title:
     UiO-66-dehydrox GeomOpt

     bravais-lattice index     =            0
     lattice parameter (alat)  =      27.5901  a.u.
     unit-cell volume          =   15298.4621 (a.u.)^3
     number of atoms/cell      =          108
     number of atomic types    =            4
     number of electrons       =       468.00
     number of Kohn-Sham states=          234
     kinetic-energy cutoff     =     150.0000  Ry
     charge density cutoff     =     900.0000  Ry
     scf convergence threshold =      1.0E-10
     mixing beta               =       0.7000
     number of iterations used =            8  plain     mixing
     Exchange-correlation= PBE
                           (   1   4   3   4   0   0   0)

     celldm(1)=  27.590096  celldm(2)=   0.000000  celldm(3)=   0.000000
     celldm(4)=   0.000000  celldm(5)=   0.000000  celldm(6)=   0.000000

     crystal axes: (cart. coord. in units of alat)
               a(1) = (   0.997642   0.000087   0.000062 )
               a(2) = (   0.473331   0.878208   0.000062 )
               a(3) = (   0.473331   0.282619   0.831491 )

     reciprocal axes: (cart. coord. in units 2 pi/alat)
               b(1) = (  1.002435 -0.540258 -0.387011 )
               b(2) = ( -0.000075  1.138750 -0.387012 )
               b(3) = ( -0.000075 -0.000045  1.202717 )

     PseudoPot. # 1 for H  read from file:
     /home/mehlhorn/pseudos/UiO-66_pbe-spn-kjpaw/H.pbe-kjpaw_psl.1.0.0.UPF
     MD5 check sum: d81a744832360e4a8af0b0b5b123bc2a
     Pseudo is Projector augmented-wave, Zval =  1.0
     Generated using &quot;atomic&quot; code by A. Dal Corso  v.6.3MaX
     Shape of augmentation charge: PSQ
     Using radial grid of  929 points,  2 beta functions with:
                l(1) =   0
                l(2) =   0
     Q(r) pseudized with 0 coefficients

     PseudoPot. # 2 for Zr read from file:
     /home/mehlhorn/pseudos/UiO-66_pbe-spn-kjpaw/Zr.pbe-spn-kjpaw_psl.1.0.0.UPF
     MD5 check sum: 02112c41713a0468aff2bb39ef194e36
     Pseudo is Projector augmented-wave + core cor, Zval = 12.0
     Generated using &quot;atomic&quot; code by A. Dal Corso  v.6.2.2
     Shape of augmentation charge: PSQ
     Using radial grid of 1225 points,  6 beta functions with:
                l(1) =   0
                l(2) =   0
                l(3) =   1
                l(4) =   1
                l(5) =   2
                l(6) =   2
     Q(r) pseudized with 0 coefficients

     PseudoPot. # 3 for C  read from file:
     /home/mehlhorn/pseudos/UiO-66_pbe-spn-kjpaw/C.pbe-n-kjpaw_psl.1.0.0.UPF
     MD5 check sum: 5f16ad9a65e90284d1d834d4ab3b0f7d
     Pseudo is Projector augmented-wave + core cor, Zval =  4.0
     Generated using &quot;atomic&quot; code by A. Dal Corso  v.6.3
     Shape of augmentation charge: PSQ
     Using radial grid of 1073 points,  4 beta functions with:
                l(1) =   0
                l(2) =   0
                l(3) =   1
                l(4) =   1
     Q(r) pseudized with 0 coefficients

     PseudoPot. # 4 for O  read from file:
     /home/mehlhorn/pseudos/UiO-66_pbe-spn-kjpaw/O.pbe-n-kjpaw_psl.1.0.0.UPF
     MD5 check sum: e99d9cef9b487d1ca56f5b95ecd0fd7a
     Pseudo is Projector augmented-wave + core cor, Zval =  6.0
     Generated using &quot;atomic&quot; code by A. Dal Corso  v.6.3
     Shape of augmentation charge: PSQ
     Using radial grid of 1095 points,  4 beta functions with:
                l(1) =   0
                l(2) =   0
                l(3) =   1
                l(4) =   1
     Q(r) pseudized with 0 coefficients

     atomic species   valence    mass     pseudopotential
     H                 1.00     1.00750     H ( 1.00)
     Zr               12.00    91.22400     Zr( 1.00)
     C                 4.00    12.01060     C ( 1.00)
     O                 6.00    15.99900     O ( 1.00)

      2 Sym. Ops., with inversion, found

   Cartesian axes

     site n.     atom                  positions (alat units)
         1        Zr     tau(   1) = (   0.9851018   0.1390969   0.1016593  )
         2        Zr     tau(   2) = (   0.9592011   1.0218154   0.7299553  )
         3        Zr     tau(   3) = (   0.5914383   0.8003192   0.0989921  )
         4        Zr     tau(   4) = (   1.3528646   0.3605937   0.7326217  )
         5        Zr     tau(   5) = (   0.5897545   0.3540447   0.7259131  )
         6        Zr     tau(   6) = (   1.3545479   0.8068685   0.1057015  )
         7        O      tau(   7) = (   1.0813101   0.2536819   0.0705312  )
         8        O      tau(   8) = (   0.8629933   0.9072313   0.7610834  )
         9        O      tau(   9) = (   0.6435861   0.8815048   0.2175001  )
        10        O      tau(  10) = (   1.3007173   0.2794084   0.6141145  )
        11        O      tau(  11) = (   0.7362658   0.3343331   0.7646523  )
        12        O      tau(  12) = (   1.2080376   0.8265801   0.0669623  )
        13        O      tau(  13) = (   1.2129379   0.3069142   0.7631490  )
        14        O      tau(  14) = (   0.7313655   0.8539990   0.0684656  )
        15        O      tau(  15) = (   1.2984098   0.6781686   0.0450558  )
        16        O      tau(  16) = (   0.6458936   0.4827446   0.7865588  )
        17        O      tau(  17) = (   0.8455690   1.0192797   0.6276114  )
        18        O      tau(  18) = (   1.0987343   0.1416336   0.2040032  )
        19        O      tau(  19) = (   1.0496388   1.0173777   0.6102290  )
        20        O      tau(  20) = (   0.8946646   0.1435355   0.2213856  )
        21        O      tau(  21) = (   1.2947158   0.4946601   0.7669425  )
        22        O      tau(  22) = (   0.6495875   0.6662531   0.0646721  )
        23        O      tau(  23) = (   1.3935433   0.7198012   0.2215967  )
        24        O      tau(  24) = (   0.5507601   0.4411120   0.6100179  )
        25        O      tau(  25) = (   0.5500568   0.7116447   0.2154460  )
        26        O      tau(  26) = (   1.3942466   0.4492685   0.6161686  )
        27        O      tau(  27) = (   0.6420736   0.2788428   0.6044852  )
        28        O      tau(  28) = (   1.3022298   0.8820704   0.2271294  )
        29        O      tau(  29) = (   0.8874086   0.2511721   0.0695253  )
        30        O      tau(  30) = (   1.0568948   0.9097412   0.7620893  )
        31        O      tau(  31) = (   0.8779266   0.0527475   0.0396758  )
        32        O      tau(  32) = (   1.0663768   1.1081657   0.7919388  )
        33        O      tau(  33) = (   0.4644754   0.7469889   0.0371773  )
        34        O      tau(  34) = (   1.4798280   0.4139243   0.7944373  )
        35        O      tau(  35) = (   0.4628985   0.2781802   0.6953083  )
        36        O      tau(  36) = (   1.4814049   0.8827330   0.1363062  )
        37        C      tau(  37) = (   1.3136567   0.9631137   0.2571892  )
        38        C      tau(  38) = (   0.6306467   0.1977995   0.5744254  )
        39        C      tau(  39) = (   1.1103247   0.8939305   0.8291503  )
        40        C      tau(  40) = (   0.8339786   0.2669827   0.0024643  )
        41        C      tau(  41) = (   1.4710132   0.4685971   0.5796208  )
        42        C      tau(  42) = (   0.4732901   0.6923161   0.2519937  )
        43        C      tau(  43) = (   0.8010212   0.8977785   0.8217204  )
        44        C      tau(  44) = (   1.1432822   0.2631347   0.0098941  )
        45        C      tau(  45) = (   1.3191843   0.1990592   0.5856550  )
        46        C      tau(  46) = (   0.6251191   0.9618540   0.2459596  )
        47        C      tau(  47) = (   1.1703180   0.8678827   0.0000415  )
        48        C      tau(  48) = (   0.7739854   0.2930305   0.8315731  )
        49        C      tau(  49) = (   1.1899776   0.3542054   0.0042454  )
        50        C      tau(  50) = (   0.7543257   0.8067079   0.8273692  )
        51        C      tau(  51) = (   0.6683575   0.9915969   0.3340054  )
        52        C      tau(  52) = (   1.2759459   0.1693163   0.4976092  )
        53        C      tau(  53) = (   0.8763083   0.2870094   0.8314054  )
        54        C      tau(  54) = (   1.0679951   0.8739039   0.0002092  )
        55        C      tau(  55) = (   0.6844868   0.1687764   0.4922590  )
        56        C      tau(  56) = (   1.2598166   0.9921369   0.3393556  )
        57        C      tau(  57) = (   0.7828110   0.3557143   0.0014204  )
        58        C      tau(  58) = (   1.1614924   0.8051989   0.8301942  )
        59        C      tau(  59) = (   0.4732821   0.6341984   0.3363424  )
        60        C      tau(  60) = (   1.4710213   0.5267149   0.4952722  )
[...]
        94        H      tau(  94) = (   1.3245509   0.5432790   0.4945685  )
        95        H      tau(  95) = (   0.7498631   0.2999314   0.4763503  )
        96        H      tau(  96) = (   1.1944402   0.8609818   0.3552643  )
        97        H      tau(  97) = (   0.7299019   0.8600999   0.3593414  )
        98        H      tau(  98) = (   1.2144015   0.3008133   0.4722732  )
        99        H      tau(  99) = (   0.8893757   0.3498776   0.6987484  )
       100        H      tau( 100) = (   1.0549277   0.8110356   0.1328662  )
       101        H      tau( 101) = (   1.1034130   0.4156953   0.1064558  )
       102        H      tau( 102) = (   0.8408904   0.7452179   0.7251588  )
       103        H      tau( 103) = (   0.8040115   0.9099254   0.5062599  )
       104        H      tau( 104) = (   1.1402919   0.2509879   0.3253547  )
       105        H      tau( 105) = (   1.0611027   0.3415250   0.6986541  )
       106        H      tau( 106) = (   0.8832007   0.8193882   0.1329604  )
       107        H      tau( 107) = (   1.1824302   0.5681885   0.0985782  )
       108        H      tau( 108) = (   0.7618732   0.5927247   0.7330364  )

     number of k points=     1
                       cart. coord. in units 2pi/alat
        k(    1) = (   0.0000000   0.0000000   0.0000000), wk =   2.0000000

     Initial potential from superposition of free atoms

     starting charge     467.9848, renormalised to     468.0000

     negative rho (up, down):  4.771E-06 0.000E+00
     Starting wfcs are  414 randomized atomic wfcs
     Checking if some PAW data can be deallocated...

     Self-consistent Calculation

     iteration #  1     ecut=   150.00 Ry     beta= 0.70
     Davidson diagonalization with overlap
     ethr =  1.00E-02,  avg # of iterations =  2.0

     total energy              =   -4001.29798090 Ry
     estimated scf accuracy    <      17.05885511 Ry

[...]

     negative rho (up, down):  6.213E-06 0.000E+00

[...]

     total energy              =   -4009.18157279 Ry
     estimated scf accuracy    <          3.4E-10 Ry

     iteration # 42     ecut=   150.00 Ry     beta= 0.70
     Davidson diagonalization with overlap
     ethr =  1.00E-13,  avg # of iterations =  6.0

     negative rho (up, down):  3.878E-05 0.000E+00

     End of self-consistent calculation

          k = 0.0000 0.0000 0.0000 (474567 PWs)   bands (ev):

   -49.6149 -49.5985 -49.5984 -49.5863 -49.5843 -49.5842 -28.1041 -28.0011
   -28.0011 -27.9077 -27.9077 -27.8997 -27.7722 -27.7274 -27.7273 -27.7207
   -27.7207 -27.6942 -27.6217 -27.6217 -27.5860 -27.5724 -27.5723 -27.5718
   -22.8389 -22.7919 -22.7918 -22.7861 -22.7861 -22.7606 -22.5840 -22.5773
   -22.5200 -22.5199 -22.5176 -22.5175 -20.5523 -20.5361 -20.5360 -20.5065
   -20.5064 -20.4708 -20.3468 -20.3468 -20.3235 -20.3234 -20.2401 -20.2360
   -17.9944 -17.7620 -17.7620 -17.5682 -17.5681 -17.5258 -17.3916 -17.3905
   -17.3905 -17.2136 -17.2136 -17.2114 -15.0496 -15.0496 -15.0401 -14.8617
   -14.8409 -14.8409 -14.4881 -14.4859 -14.4858 -14.3141 -14.3141 -14.3120
   -12.2909 -12.2547 -12.2546 -12.0950 -12.0363 -12.0362 -10.9630 -10.9630
   -10.9515 -10.7861 -10.7861 -10.7694 -10.2309 -10.2308 -10.1497 -10.0276
    -9.8540  -9.8540  -9.6148  -9.5557  -9.5557  -9.4462  -9.3767  -9.3766
    -8.7839  -8.6120  -8.5365  -8.5365  -8.3947  -8.3946  -8.3542  -8.1971
    -8.1970  -8.1492  -8.1492  -7.8691  -7.8667  -7.8666  -7.7622  -7.7621
    -7.6627  -7.6482  -7.6481  -7.6393  -7.5377  -7.3852  -7.3852  -7.2539
    -7.1553  -6.9172  -6.9172  -6.8586  -6.8322  -6.8317  -6.8317  -6.7358
    -6.7358  -6.6987  -6.6885  -6.6885  -6.6665  -6.6665  -6.6558  -6.5693
    -6.5340  -6.5339  -6.5117  -6.4522  -6.4247  -6.4247  -6.3474  -6.3474
    -6.2150  -6.1883  -6.1883  -6.0314  -6.0314  -6.0141  -5.7280  -5.6341
    -5.6341  -5.4573  -5.2480  -5.2480  -5.1307  -5.0005  -4.9571  -4.9571
    -4.8899  -4.8899  -4.8895  -4.8895  -4.8658  -4.7825  -4.7678  -4.7678
    -4.7314  -4.2505  -4.2505  -4.1975  -4.1502  -4.1502  -4.1501  -4.1436
    -4.1436  -3.9862  -3.9861  -3.9773  -3.9772  -3.9593  -3.8051  -3.6425
    -3.6424  -3.6105  -3.5191  -3.4021  -3.3712  -3.3712  -3.2983  -3.2416
    -3.2416  -3.2065  -3.1673  -3.1673  -3.0819  -3.0422  -3.0421  -2.9791
    -2.9791  -2.9223  -2.9223  -2.8176  -2.7471  -2.6838  -2.6838  -2.6833
    -2.6360  -2.6360  -2.5824  -2.5824  -2.5317  -2.5307  -2.5307  -2.4833
    -2.4260  -2.4260  -2.3921  -2.3788  -2.3780  -2.3722  -2.3722  -2.3445
    -2.3445  -2.2857  -2.2389  -2.2389  -2.1742  -2.1741  -2.1575  -1.6318
    -1.6318  -1.4963

     highest occupied level (ev):    -1.4963

!    total energy              =   -4009.18157279 Ry
     total all-electron energy =    -51389.598679 Ry
     estimated scf accuracy    <          7.8E-11 Ry

     The total energy is the sum of the following terms:
     one-electron contribution =   -6098.79313975 Ry
     hartree contribution      =    3180.88198645 Ry
     xc contribution           =    -570.38953184 Ry
     ewald contribution        =    1322.83527882 Ry
     one-center paw contrib.   =   -1843.71616647 Ry

     convergence has been achieved in  42 iterations

     Writing all to output data dir ./pwscf.save/ :
     XML data file, charge density, pseudopotentials, collected wavefunctions

     General routines

     Parallel routines

   This run was terminated on:  11:17: 2  16Jun2025

   JOB DONE.