     Program PWSCF v.7.3.1 starts on  4Jun2025 at  7:59:50

     Waiting for input...
     Reading input from standard input

     Current dimensions of program PWSCF are:
     Max number of different atomic species (ntypx) = 10
     Max number of k-points (npk) =  40000
     Max angular momentum in pseudopotentials (lmaxx) =  4
     file H.pbe-kjpaw_psl.1.0.0.UPF: wavefunction(s)  1S renormalized
     file Zr.pbe-spn-kjpaw_psl.1.0.0.UPF: wavefunction(s)  4S 4P renormalized
     file C.pbe-n-kjpaw_psl.1.0.0.UPF: wavefunction(s)  2S 2P renormalized
     file O.pbe-n-kjpaw_psl.1.0.0.UPF: wavefunction(s)  2S 2P renormalized
     file N.pbe-n-kjpaw_psl.1.0.0.UPF: wavefunction(s)  2S renormalized

     IMPORTANT: XC functional enforced from input :
     Exchange-correlation= PBE
                           (   1   4   3   4   0   0   0)
     Any further DFT definition will be discarded
     Please, verify this is what you really want

     gamma-point specific algorithms are used

     R & G space division:  proc/nbgrp/npool/nimage =     256
     wavefunctions fft division:  task group distribution
                                  #TG    x Z-proc =       8     32
     Subspace diagonalization in iterative solution of the eigenvalue problem:
     one sub-group per band group will be used

     Using Pencil Decomposition

     Title:
     UiO-66-NH2-dehydrox GeomOpt

     bravais-lattice index     =            0
     lattice parameter (alat)  =      27.5206  a.u.
     unit-cell volume          =   15323.5057 (a.u.)^3
     number of atoms/cell      =          120
     number of atomic types    =            5
     number of electrons       =       504.00
     number of Kohn-Sham states=          252
     kinetic-energy cutoff     =     100.0000  Ry
     charge density cutoff     =     600.0000  Ry
     scf convergence threshold =      1.0E-08
     mixing beta               =       0.7000
     number of iterations used =            8  plain     mixing
     energy convergence thresh.=      3.6E-06
     force convergence thresh. =      1.0E-05
     press convergence thresh. =      5.0E-01
     Exchange-correlation= PBE
                           (   1   4   3   4   0   0   0)
     nstep                     =          750

     celldm(1)=  27.520592  celldm(2)=   0.000000  celldm(3)=   0.000000
     celldm(4)=   0.000000  celldm(5)=   0.000000  celldm(6)=   0.000000

     crystal axes: (cart. coord. in units of alat)
               a(1) = (   0.999446  -0.001436  -0.001029 )
               a(2) = (   0.472799   0.880543  -0.001029 )
               a(3) = (   0.472799   0.282318   0.834058 )

     reciprocal axes: (cart. coord. in units 2 pi/alat)
               b(1) = (  0.999387 -0.537061 -0.384730 )
               b(2) = (  0.001234  1.134551 -0.384730 )
               b(3) = (  0.001234  0.000737  1.198008 )

     PseudoPot. # 1 for H  read from file:
     /home/mehlhorn/pseudos/UiO-66_pbe-spn-kjpaw/H.pbe-kjpaw_psl.1.0.0.UPF
     MD5 check sum: d81a744832360e4a8af0b0b5b123bc2a
     Pseudo is Projector augmented-wave, Zval =  1.0
     Generated using &quot;atomic&quot; code by A. Dal Corso  v.6.3MaX
     Shape of augmentation charge: PSQ
     Using radial grid of  929 points,  2 beta functions with:
                l(1) =   0
                l(2) =   0
     Q(r) pseudized with 0 coefficients

     PseudoPot. # 2 for Zr read from file:
     /home/mehlhorn/pseudos/UiO-66_pbe-spn-kjpaw/Zr.pbe-spn-kjpaw_psl.1.0.0.UPF
     MD5 check sum: 02112c41713a0468aff2bb39ef194e36
     Pseudo is Projector augmented-wave + core cor, Zval = 12.0
     Generated using &quot;atomic&quot; code by A. Dal Corso  v.6.2.2
     Shape of augmentation charge: PSQ
     Using radial grid of 1225 points,  6 beta functions with:
                l(1) =   0
                l(2) =   0
                l(3) =   1
                l(4) =   1
                l(5) =   2
                l(6) =   2
     Q(r) pseudized with 0 coefficients

     PseudoPot. # 3 for C  read from file:
     /home/mehlhorn/pseudos/UiO-66_pbe-spn-kjpaw/C.pbe-n-kjpaw_psl.1.0.0.UPF
     MD5 check sum: 5f16ad9a65e90284d1d834d4ab3b0f7d
     Pseudo is Projector augmented-wave + core cor, Zval =  4.0
     Generated using &quot;atomic&quot; code by A. Dal Corso  v.6.3
     Shape of augmentation charge: PSQ
     Using radial grid of 1073 points,  4 beta functions with:
                l(1) =   0
                l(2) =   0
                l(3) =   1
                l(4) =   1
     Q(r) pseudized with 0 coefficients

     PseudoPot. # 4 for O  read from file:
     /home/mehlhorn/pseudos/UiO-66_pbe-spn-kjpaw/O.pbe-n-kjpaw_psl.1.0.0.UPF
     MD5 check sum: e99d9cef9b487d1ca56f5b95ecd0fd7a
     Pseudo is Projector augmented-wave + core cor, Zval =  6.0
     Generated using &quot;atomic&quot; code by A. Dal Corso  v.6.3
     Shape of augmentation charge: PSQ
     Using radial grid of 1095 points,  4 beta functions with:
                l(1) =   0
                l(2) =   0
                l(3) =   1
                l(4) =   1
     Q(r) pseudized with 0 coefficients

     PseudoPot. # 5 for N  read from file:
     /home/mehlhorn/pseudos/UiO-66_pbe-spn-kjpaw/N.pbe-n-kjpaw_psl.1.0.0.UPF
     MD5 check sum: 14c48229446f9f2d411169a3abcbc3fa
     Pseudo is Projector augmented-wave + core cor, Zval =  5.0
     Generated using &quot;atomic&quot; code by A. Dal Corso  v.6.3
     Shape of augmentation charge: PSQ
     Using radial grid of 1085 points,  4 beta functions with:
                l(1) =   0
                l(2) =   0
                l(3) =   1
                l(4) =   1
     Q(r) pseudized with 0 coefficients

     atomic species   valence    mass     pseudopotential
     H                 1.00     1.00750     H ( 1.00)
     Zr               12.00    91.22400     Zr( 1.00)
     C                 4.00    12.01060     C ( 1.00)
     O                 6.00    15.99900     O ( 1.00)
     N                 5.00    14.00650     N ( 1.00)

     No symmetry found

   Cartesian axes

     site n.     atom                  positions (alat units)
         1        Zr     tau(   1) = (   0.9900351   0.1395721   0.1028148  )
         2        Zr     tau(   2) = (   0.5948311   0.8041031   0.0990732  )
         3        Zr     tau(   3) = (   0.5924712   0.3564570   0.7294772  )
         4        Zr     tau(   4) = (   1.3593131   0.8096220   0.1042222  )
         5        Zr     tau(   5) = (   0.9609403   1.0263134   0.7330459  )
         6        Zr     tau(   6) = (   1.3575073   0.3601294   0.7359093  )
         7        O      tau(   7) = (   1.0822206   0.2556387   0.0706772  )
         8        O      tau(   8) = (   0.6446423   0.8819793   0.2193084  )
         9        O      tau(   9) = (   0.7383762   0.3344255   0.7645307  )
        10        O      tau(  10) = (   1.3050849   0.2843358   0.6141994  )
        11        O      tau(  11) = (   0.8693500   0.9077934   0.7625462  )
        12        O      tau(  12) = (   1.2115304   0.8296993   0.0716142  )
        13        O      tau(  13) = (   1.3021148   0.6833735   0.0362806  )
        14        O      tau(  14) = (   1.2192337   0.2988655   0.7667885  )
        15        O      tau(  15) = (   0.7345818   0.8622163   0.0677781  )
        16        O      tau(  16) = (   0.8414196   1.0257378   0.6353683  )
        17        O      tau(  17) = (   0.8821769   0.0540665   0.0408540  )
        18        O      tau(  18) = (   0.4678065   0.7500255   0.0380477  )
        19        O      tau(  19) = (   0.6491321   0.4846731   0.7945690  )
        20        O      tau(  20) = (   1.1074825   0.1406542   0.2032725  )
        21        O      tau(  21) = (   0.6534953   0.6702597   0.0664010  )
        22        O      tau(  22) = (   0.5551547   0.4432001   0.6132612  )
        23        O      tau(  23) = (   0.8912274   0.2537272   0.0678963  )
        24        O      tau(  24) = (   1.3962336   0.7205419   0.2189193  )
        25        O      tau(  25) = (   1.0488275   1.0208990   0.6118008  )
        26        O      tau(  26) = (   1.2965981   0.4927793   0.7697897  )
        27        O      tau(  27) = (   0.4660363   0.2802902   0.6979083  )
        28        O      tau(  28) = (   1.3089800   0.8852955   0.2274430  )
        29        O      tau(  29) = (   0.5511899   0.7153797   0.2183932  )
        30        O      tau(  30) = (   1.4858087   0.8853650   0.1351118  )
        31        O      tau(  31) = (   1.4841876   0.4136454   0.7973944  )
        32        O      tau(  32) = (   1.0681407   1.1122427   0.7948240  )
        33        O      tau(  33) = (   1.4002517   0.4509953   0.6203258  )
        34        O      tau(  34) = (   0.6461007   0.2779890   0.6070828  )
        35        O      tau(  35) = (   1.0612093   0.9151157   0.7650530  )
        36        O      tau(  36) = (   0.9000321   0.1456770   0.2223356  )
        37        N      tau(  37) = (   1.0714438   0.4367846   0.0960603  )
        38        N      tau(  38) = (   0.7119933   0.8334486   0.3826577  )
        39        N      tau(  39) = (   0.8927354   0.3277623   0.6660268  )
        40        N      tau(  40) = (   1.3035223   0.6479163   0.3587113  )
        41        N      tau(  41) = (   1.1886863   0.6099629   0.6801534  )
        42        N      tau(  42) = (   1.1008050   0.8875820   0.4980622  )
        43        C      tau(  43) = (   0.8040020   0.9013582   0.8203017  )
        44        C      tau(  44) = (   1.3204081   0.2018493   0.5895252  )
        45        C      tau(  45) = (   0.1557334   0.0832754   0.2491964  )
        46        C      tau(  46) = (   1.1748689   0.8668573   0.0014535  )
        47        C      tau(  47) = (   0.1910103   0.3589529   0.0061845  )
        48        C      tau(  48) = (   0.4066049   0.0051788  -0.0039831  )
        49        C      tau(  49) = (   0.3051705   0.0124762  -0.0013245  )
        50        C      tau(  50) = (   0.1471801   0.2673477   0.0122387  )
        51        C      tau(  51) = (   1.1519119   0.4373571   0.0474079  )
        52        C      tau(  52) = (   0.7097701   0.9260516   0.3988519  )
        53        C      tau(  53) = (   0.7934923   0.7321772   0.7845492  )
        54        C      tau(  54) = (   1.2773572   0.1704730   0.5016588  )
        55        C      tau(  55) = (   0.7559594   0.8107582   0.8267775  )
        56        C      tau(  56) = (   1.0723214   0.8732078   0.0000129  )
        57        C      tau(  57) = (   0.1974220   0.1106009   0.3378791  )
        58        C      tau(  58) = (   1.1984927   0.2030724   0.3601715  )
        59        C      tau(  59) = (   1.1140866   0.8981334   0.8325402  )
        60        C      tau(  60) = (   1.3191110   0.9667624   0.2574336  )
[...]
       106        H      tau( 106) = (   0.7468695   0.2986547   0.4777646  )
       107        H      tau( 107) = (   1.2052459   0.8620847   0.3547956  )
       108        H      tau( 108) = (   1.0337338   0.3781417   0.0964754  )
       109        H      tau( 109) = (   1.0391455   0.4974451   0.1064925  )
       110        H      tau( 110) = (   1.3306146   0.5457383   0.5033102  )
[...]
H                0.3931765690        0.1171333745        0.7928949778
H                0.5545343862        0.4652134937        0.7654105126
H                0.4652133982        0.7654104045        0.5545346739

     Writing config-only to output data dir ./pwscf.save/ :
     XML data file
     NEW-OLD atomic charge density approx. for the potential

[...]

     Self-consistent Calculation

[...]

     Threshold (ethr) on eigenvalues was too large:
     Diagonalizing with lowered threshold

     Davidson diagonalization with overlap
     ethr =  1.02E-12,  avg # of iterations = 10.0

[...]

     total energy              =   -4185.72773080 Ry
     estimated scf accuracy    <          3.6E-10 Ry

     iteration #  5     ecut=   100.00 Ry     beta= 0.70
     Davidson diagonalization with overlap
     ethr =  1.00E-13,  avg # of iterations =  2.0

[...]

     End of self-consistent calculation

          k = 0.0000 0.0000 0.0000 (129297 PWs)   bands (ev):

   -49.2808 -49.2648 -49.2647 -49.2498 -49.2466 -49.2465 -27.7847 -27.6795
   -27.6795 -27.5776 -27.5776 -27.5697 -27.4365 -27.3930 -27.3930 -27.3862
   -27.3861 -27.3587 -27.2867 -27.2867 -27.2503 -27.2351 -27.2350 -27.2350
   -22.4724 -22.4336 -22.4336 -22.4082 -22.4082 -22.3907 -22.2176 -22.1733
   -22.1502 -22.1501 -22.1139 -22.1139 -20.1858 -20.1692 -20.1691 -20.1331
   -20.1331 -20.0981 -19.9622 -19.9622 -19.9112 -19.9112 -19.8620 -19.8263
   -18.7045 -18.7009 -18.7009 -18.4518 -18.4517 -18.4517 -17.6682 -17.4418
   -17.4418 -17.2481 -17.2481 -17.2140 -16.5670 -16.5670 -16.5664 -16.3434
   -16.3432 -16.3432 -14.6165 -14.6165 -14.6084 -14.3914 -14.3714 -14.3713
   -13.6570 -13.6570 -13.6527 -13.4374 -13.4368 -13.4367 -11.9890 -11.9629
   -11.9628 -11.7636 -11.7116 -11.7116 -10.6562 -10.6525 -10.6525 -10.4255
   -10.4255 -10.4155  -9.9304  -9.9304  -9.8047  -9.7210  -9.6139  -9.5511
    -9.5511  -9.5213  -9.5213  -9.3937  -9.3167  -9.3167  -8.6568  -8.6067
    -8.6067  -8.3989  -8.3517  -8.3516  -8.2485  -8.0933  -8.0933  -8.0086
    -7.9684  -7.9684  -7.8186  -7.7533  -7.7533  -7.6360  -7.6360  -7.5988
    -7.5140  -7.5140  -7.4375  -7.4375  -7.4221  -7.3296  -7.3198  -7.3197
    -7.2330  -7.1457  -7.1456  -6.9542  -6.9542  -6.9404  -6.9310  -6.7999
    -6.7581  -6.7581  -6.7216  -6.5386  -6.5386  -6.4425  -6.4425  -6.4181
    -6.3475  -6.2172  -6.2171  -6.1548  -6.0160  -6.0159  -6.0021  -5.9595
    -5.9595  -5.8869  -5.8620  -5.8620  -5.7541  -5.7541  -5.7435  -5.6587
    -5.6567  -5.6567  -5.4205  -5.3497  -5.3497  -5.1700  -5.0071  -4.9944
    -4.9944  -4.9363  -4.9363  -4.8051  -4.7663  -4.7477  -4.7476  -4.5921
    -4.5921  -4.5642  -4.5431  -4.5430  -4.4670  -4.0733  -4.0733  -4.0538
    -3.9335  -3.9201  -3.9201  -3.8683  -3.8683  -3.8177  -3.8177  -3.7707
    -3.6912  -3.6912  -3.5204  -3.3300  -3.3299  -3.3227  -3.2631  -3.2460
    -3.2460  -3.1885  -3.1457  -3.0839  -3.0839  -3.0346  -2.9980  -2.9980
    -2.9093  -2.9093  -2.9026  -2.7862  -2.7862  -2.7767  -2.7750  -2.6651
    -2.6650  -2.6162  -2.6162  -2.5580  -2.5580  -2.4934  -2.4001  -2.3597
    -2.3597  -2.3495  -2.2601  -2.2601  -2.2300  -2.1952  -2.1952  -2.1681
    -2.1390  -2.1390  -2.0566  -2.0548  -2.0548  -1.9747  -1.9747  -1.9455
    -1.7682  -1.7361  -1.7361  -1.3216  -1.3216  -1.1849  -0.6779  -0.6779
    -0.6639  -0.4588  -0.4413  -0.4412

     highest occupied level (ev):    -0.4412

!    total energy              =   -4185.72773080 Ry
     total all-electron energy =    -52053.937600 Ry
     estimated scf accuracy    <          8.9E-11 Ry

     The total energy is the sum of the following terms:
     one-electron contribution =   -6006.25840504 Ry
     hartree contribution      =    3151.82286567 Ry
     xc contribution           =    -609.65165325 Ry
     ewald contribution        =    1169.85882960 Ry
     one-center paw contrib.   =   -1891.49936778 Ry

     convergence has been achieved in   5 iterations

     negative rho (up, down):  2.725E-05 0.000E+00

     Forces acting on atoms (cartesian axes, Ry/au):

     atom    1 type  2   force =    -0.00000031    0.00000539    0.00000096
     atom    2 type  2   force =    -0.00000039   -0.00000008   -0.00000396
     atom    3 type  2   force =    -0.00000180   -0.00000260    0.00000021
     atom    4 type  2   force =     0.00000665    0.00000535   -0.00000295
     atom    5 type  2   force =     0.00000533   -0.00000483   -0.00000196
     atom    6 type  2   force =     0.00000614    0.00000099    0.00000076
     atom    7 type  4   force =     0.00000457    0.00000142   -0.00000464
     atom    8 type  4   force =     0.00000107   -0.00000368   -0.00000024
     atom    9 type  4   force =     0.00000249   -0.00000146    0.00000150
     atom   10 type  4   force =    -0.00000152    0.00001362   -0.00000157
     atom   11 type  4   force =    -0.00002451   -0.00000177    0.00002662
     atom   12 type  4   force =     0.00000954   -0.00000985    0.00002194
     atom   13 type  4   force =    -0.00001403    0.00002759    0.00000869
     atom   14 type  4   force =    -0.00000299   -0.00001747    0.00001340
     atom   15 type  4   force =     0.00000301    0.00000706   -0.00000147
     atom   16 type  4   force =    -0.00001288    0.00001249    0.00000333
     atom   17 type  4   force =    -0.00000084    0.00000157    0.00000415
     atom   18 type  4   force =    -0.00000048   -0.00000066    0.00000725
     atom   19 type  4   force =     0.00000586   -0.00000549    0.00000107
     atom   20 type  4   force =     0.00000767   -0.00000228   -0.00000193
     atom   21 type  4   force =     0.00000557    0.00000686    0.00000798
     atom   22 type  4   force =    -0.00000172    0.00000365   -0.00000003
     atom   23 type  4   force =    -0.00000858   -0.00000097   -0.00001004
     atom   24 type  4   force =    -0.00001219   -0.00000223   -0.00000607
     atom   25 type  4   force =    -0.00000130    0.00000419   -0.00000576
     atom   26 type  4   force =    -0.00000670   -0.00000690   -0.00000442
     atom   27 type  4   force =     0.00000389    0.00000335   -0.00000399
     atom   28 type  4   force =    -0.00000183   -0.00002388   -0.00000904
     atom   29 type  4   force =    -0.00001570   -0.00000545    0.00000445
     atom   30 type  4   force =    -0.00000388   -0.00000318    0.00000389
     atom   31 type  4   force =    -0.00000242    0.00000315   -0.00000270
     atom   32 type  4   force =     0.00000203   -0.00000436   -0.00000358
     atom   33 type  4   force =     0.00000804    0.00000218   -0.00000265
     atom   34 type  4   force =    -0.00000181    0.00000532    0.00000136
     atom   35 type  4   force =     0.00001375    0.00000086    0.00001703
     atom   36 type  4   force =    -0.00000937   -0.00001492    0.00000838
     atom   37 type  5   force =     0.00000105   -0.00002184    0.00000303
     atom   38 type  5   force =     0.00000979   -0.00001307    0.00001271
     atom   39 type  5   force =    -0.00001039    0.00000563    0.00001091
     atom   40 type  5   force =    -0.00000796   -0.00000791    0.00000536
     atom   41 type  5   force =    -0.00002114    0.00000575   -0.00001660
     atom   42 type  5   force =     0.00000029   -0.00001039   -0.00001255
     atom   43 type  3   force =     0.00003684   -0.00002457   -0.00004804
     atom   44 type  3   force =     0.00000363   -0.00001969    0.00000149
     atom   45 type  3   force =     0.00000266    0.00001362    0.00000459
     atom   46 type  3   force =    -0.00000906    0.00001168   -0.00003011
     atom   47 type  3   force =     0.00000794   -0.00000188   -0.00000095
     atom   48 type  3   force =     0.00000548    0.00000223    0.00000503
     atom   49 type  3   force =     0.00000458    0.00000222    0.00000241
     atom   50 type  3   force =    -0.00000177    0.00001021    0.00001076
     atom   51 type  3   force =    -0.00000190    0.00001332    0.00000762
     atom   52 type  3   force =     0.00000003    0.00001564   -0.00000458
     atom   53 type  3   force =     0.00001108   -0.00000392   -0.00000883
     atom   54 type  3   force =    -0.00000669    0.00002423   -0.00000440
     atom   55 type  3   force =    -0.00001759    0.00000792    0.00001214
     atom   56 type  3   force =    -0.00000152    0.00000019   -0.00000589
     atom   57 type  3   force =     0.00000793   -0.00001376    0.00000368
     atom   58 type  3   force =     0.00000247    0.00001687    0.00000339
     atom   59 type  3   force =    -0.00001007   -0.00000525   -0.00002402
     atom   60 type  3   force =     0.00001375    0.00004382    0.00000830
[...]
     atom  106 type  1   force =    -0.00000085   -0.00000004    0.00000449
     atom  107 type  1   force =    -0.00000015    0.00000148   -0.00000834
     atom  108 type  1   force =    -0.00000297    0.00001427    0.00000628
     atom  109 type  1   force =    -0.00001344    0.00000455    0.00000332
     atom  110 type  1   force =    -0.00000078   -0.00000849    0.00000264
     atom  111 type  1   force =    -0.00001469   -0.00000222   -0.00000097
     atom  112 type  1   force =    -0.00001005   -0.00001071    0.00000076
     atom  113 type  1   force =    -0.00000342    0.00000423   -0.00000883
     atom  114 type  1   force =    -0.00000494   -0.00000273   -0.00001345
     atom  115 type  1   force =    -0.00000693   -0.00000763   -0.00001005
     atom  116 type  1   force =    -0.00000375   -0.00000106   -0.00001311
     atom  117 type  1   force =     0.00000036   -0.00001149   -0.00000051
     atom  118 type  1   force =     0.00000779    0.00000262   -0.00001118
     atom  119 type  1   force =     0.00000771   -0.00001132    0.00000212
     atom  120 type  1   force =    -0.00000747    0.00000070    0.00000710

     Total force =     0.000176     Total SCF correction =     0.000023
     SCF correction compared to forces is large: reduce conv_thr to get better values

     Computing stress (Cartesian axis) and pressure

     negative rho (up, down):  2.725E-05 0.000E+00
          total   stress  (Ry/bohr**3)                   (kbar)     P=        0.00
  -0.00000001  -0.00000000   0.00000000           -0.00       -0.00        0.00
  -0.00000000   0.00000002   0.00000001           -0.00        0.00        0.00
   0.00000000   0.00000001   0.00000000            0.00        0.00        0.00

     Message from routine bfgs:
     history already reset at previous step: exiting
     Energy error            =      3.4E-09 Ry
     Gradient error          =      4.8E-05 Ry/Bohr
     Cell gradient error     =      3.1E-03 kbar

     bfgs failed after   8 scf cycles and   7 bfgs steps, convergence not achieved
     (criteria: energy <  3.6E-06 Ry, force <  1.0E-05 Ry/Bohr, cell <  5.0E-01 kbar)

     End of BFGS Geometry Optimization

     Final enthalpy           =   -4185.7277307972 Ry

     File ./pwscf.bfgs deleted, as requested
Begin final coordinates
     new unit-cell volume =  15321.82853 a.u.^3 (  2270.46074 Ang^3 )
     density =      1.25655 g/cm^3

CELL_PARAMETERS (alat= 27.52059178)
   0.999410041  -0.001434937  -0.001028272
   0.472782727   0.880510613  -0.001028381
   0.472782477   0.282307758   0.834027787

ATOMIC_POSITIONS (crystal)
Zr               0.8749128917        0.1200197220        0.1244985005
Zr               0.1244987898        0.8749127412        0.1200198412
Zr               0.1200195243        0.1244986769        0.8749128819
Zr               0.8835649608        0.8801352522        0.1271343588
Zr               0.1271343383        0.8835650976        0.8801352396
Zr               0.8801348878        0.1271346566        0.8835647165
O                0.9170703283        0.2641805339        0.0861963380
O                0.0861961691        0.9170700708        0.2641807634
O                0.2641804660        0.0861961849        0.9170701065
O                0.9152767133        0.0879074052        0.7376329943
O                0.0879083677        0.7376332359        0.9152757857
O                0.7376331958        0.9152769414        0.0879066977
O                0.9203411556        0.7629738912        0.0455735482
O                0.7629745608        0.0455743196        0.9203395949
O                0.2449926554        0.9530560708        0.0827478166
O                0.0455739166        0.9203399877        0.7629746393
O                0.8368773428        0.0467137115        0.0500744192
O                0.0500748800        0.8368774766        0.0467132959
O                0.0827475116        0.2449930572        0.9530556652
O                0.9530558549        0.0827475675        0.2449929107
O                0.2675801147        0.7357035578        0.0808535151
O                0.0808534730        0.2675800325        0.7357037001
O                0.7282894798        0.2628443288        0.0826320076
O                0.9241773609        0.7349866983        0.2645199031
O                0.2645197891        0.9241773618        0.7349865766
O                0.7349866925        0.2645201986        0.9241771875
O                0.0467131676        0.0500744730        0.8368778176
O                0.7452154385        0.9185226124        0.2747469365
O                0.0826319141        0.7282896469        0.2628443983
O                0.9574184427        0.9543414944        0.1643584177
O                0.9543411177        0.1643588244        0.9574183290
O                0.1643583782        0.9574184762        0.9543415618
O                0.9185221108        0.2747470342        0.7452156861
O                0.2628445773        0.0826316388        0.7282895237
O                0.2747471652        0.7452160559        0.9185219103
O                0.7357037903        0.0808536131        0.2675798877
N                0.7992432353        0.4599174608        0.1167342414
N                0.1167329777        0.7992428730        0.4599174869
N                0.4599177522        0.1167328708        0.7992423598
N                0.8167394337        0.5986957680        0.4318243615
N                0.5986955485        0.4318241632        0.8167399668
N                0.4318242256        0.8167396869        0.5986956281
C                0.0038296607        0.7080349886        0.9843842815
C                0.9843833739        0.0038306227        0.7080349434
C                0.0150402438       -0.0011991113        0.2987933238
C                0.7080350817        0.9843833637        0.0038304976
C               -0.0042651600        0.4051072758        0.0079112833
C                0.4051071707        0.0079115117       -0.0042655078
C                0.2987930654        0.0150403433       -0.0011987595
C               -0.0011984062        0.2987931395        0.0150399737
C                0.8980756473        0.4793853745        0.0585446177
C                0.0585443168        0.8980744963        0.4793860914
C                0.0979464052        0.5298340300        0.9414118303
C                0.9920173211        0.0019820107        0.6026942266
C                0.0019834745        0.6026938489        0.9920166719
C                0.6026939688        0.9920173533        0.0019824284
C                0.0079109349       -0.0042652649        0.4051074742
C                0.9501262909        0.0933101288        0.4331158021
C                0.3107485466        0.7000500590        0.9994284358
C                0.7000503135        0.9994271141        0.3107482353
[...]
H                0.4022010936        0.1559532981        0.5735132783
H                0.6050168350        0.8430634271        0.4271647079
H                0.7928956327        0.3931761668        0.1171348877
H                0.7303726549        0.5246919961        0.1292294341
H                0.8430634940        0.4271648260        0.6050166447
H                0.8201797301        0.6571175224        0.3567534669
H                0.3567534101        0.8201800450        0.6571172991
H                0.7654106009        0.5545344932        0.4652132037
H                0.1292280056        0.7303715461        0.5246929503
H                0.6571172380        0.3567533987        0.8201799764
H                0.5246925506        0.1292273945        0.7303717777
H                0.1171336292        0.7928949006        0.3931770016
H                0.3931765690        0.1171333745        0.7928949778
H                0.5545343862        0.4652134937        0.7654105126
H                0.4652133982        0.7654104045        0.5545346739
End final coordinates

     Writing config-only to output data dir ./pwscf.save/ :
     XML data file

     Writing all to output data dir ./pwscf.save/ :
     XML data file, charge density, pseudopotentials, collected wavefunctions

     General routines

     Parallel routines

   This run was terminated on:   8:13:46   4Jun2025

   JOB DONE.