     Program PWSCF v.7.3.1 starts on  3Jun2025 at 12:31:22

     Waiting for input...
     Reading input from standard input

     Current dimensions of program PWSCF are:
     Max number of different atomic species (ntypx) = 10
     Max number of k-points (npk) =  40000
     Max angular momentum in pseudopotentials (lmaxx) =  4
     file H.pbe-kjpaw_psl.1.0.0.UPF: wavefunction(s)  1S renormalized
     file Zr.pbe-spn-kjpaw_psl.1.0.0.UPF: wavefunction(s)  4S 4P renormalized
     file C.pbe-n-kjpaw_psl.1.0.0.UPF: wavefunction(s)  2S 2P renormalized
     file O.pbe-n-kjpaw_psl.1.0.0.UPF: wavefunction(s)  2S 2P renormalized

     IMPORTANT: XC functional enforced from input :
     Exchange-correlation= PBE
                           (   1   4   3   4   0   0   0)
     Any further DFT definition will be discarded
     Please, verify this is what you really want

     gamma-point specific algorithms are used
     Message from routine setup:
     using ibrav=0 with symmetry is DISCOURAGED, use correct ibrav instead

     R & G space division:  proc/nbgrp/npool/nimage =     256
     wavefunctions fft division:  task group distribution
                                  #TG    x Z-proc =       8     32
     Subspace diagonalization in iterative solution of the eigenvalue problem:
     one sub-group per band group will be used

     Using Pencil Decomposition

     Title:
     UiO-66-dehydrox GeomOpt

     bravais-lattice index     =            0
     lattice parameter (alat)  =      27.5901  a.u.
     unit-cell volume          =   15298.8039 (a.u.)^3
     number of atoms/cell      =          108
     number of atomic types    =            4
     number of electrons       =       468.00
     number of Kohn-Sham states=          234
     kinetic-energy cutoff     =      80.0000  Ry
     charge density cutoff     =     480.0000  Ry
     scf convergence threshold =      1.0E-08
     mixing beta               =       0.7000
     number of iterations used =            8  plain     mixing
     energy convergence thresh.=      3.6E-06
     force convergence thresh. =      1.0E-05
     press convergence thresh. =      5.0E-01
     Exchange-correlation= PBE
                           (   1   4   3   4   0   0   0)
     nstep                     =          750

     celldm(1)=  27.590096  celldm(2)=   0.000000  celldm(3)=   0.000000
     celldm(4)=   0.000000  celldm(5)=   0.000000  celldm(6)=   0.000000

     crystal axes: (cart. coord. in units of alat)
               a(1) = (   0.997656   0.000096   0.000069 )
               a(2) = (   0.473345   0.878216   0.000069 )
               a(3) = (   0.473345   0.282627   0.831498 )

     reciprocal axes: (cart. coord. in units 2 pi/alat)
               b(1) = (  1.002428 -0.540263 -0.387014 )
               b(2) = ( -0.000083  1.138747 -0.387014 )
               b(3) = ( -0.000083 -0.000049  1.202713 )

     PseudoPot. # 1 for H  read from file:
     /home/mehlhorn/pseudos/UiO-66_pbe-spn-kjpaw/H.pbe-kjpaw_psl.1.0.0.UPF
     MD5 check sum: d81a744832360e4a8af0b0b5b123bc2a
     Pseudo is Projector augmented-wave, Zval =  1.0
     Generated using &quot;atomic&quot; code by A. Dal Corso  v.6.3MaX
     Shape of augmentation charge: PSQ
     Using radial grid of  929 points,  2 beta functions with:
                l(1) =   0
                l(2) =   0
     Q(r) pseudized with 0 coefficients

     PseudoPot. # 2 for Zr read from file:
     /home/mehlhorn/pseudos/UiO-66_pbe-spn-kjpaw/Zr.pbe-spn-kjpaw_psl.1.0.0.UPF
     MD5 check sum: 02112c41713a0468aff2bb39ef194e36
     Pseudo is Projector augmented-wave + core cor, Zval = 12.0
     Generated using &quot;atomic&quot; code by A. Dal Corso  v.6.2.2
     Shape of augmentation charge: PSQ
     Using radial grid of 1225 points,  6 beta functions with:
                l(1) =   0
                l(2) =   0
                l(3) =   1
                l(4) =   1
                l(5) =   2
                l(6) =   2
     Q(r) pseudized with 0 coefficients

     PseudoPot. # 3 for C  read from file:
     /home/mehlhorn/pseudos/UiO-66_pbe-spn-kjpaw/C.pbe-n-kjpaw_psl.1.0.0.UPF
     MD5 check sum: 5f16ad9a65e90284d1d834d4ab3b0f7d
     Pseudo is Projector augmented-wave + core cor, Zval =  4.0
     Generated using &quot;atomic&quot; code by A. Dal Corso  v.6.3
     Shape of augmentation charge: PSQ
     Using radial grid of 1073 points,  4 beta functions with:
                l(1) =   0
                l(2) =   0
                l(3) =   1
                l(4) =   1
     Q(r) pseudized with 0 coefficients

     PseudoPot. # 4 for O  read from file:
     /home/mehlhorn/pseudos/UiO-66_pbe-spn-kjpaw/O.pbe-n-kjpaw_psl.1.0.0.UPF
     MD5 check sum: e99d9cef9b487d1ca56f5b95ecd0fd7a
     Pseudo is Projector augmented-wave + core cor, Zval =  6.0
     Generated using &quot;atomic&quot; code by A. Dal Corso  v.6.3
     Shape of augmentation charge: PSQ
     Using radial grid of 1095 points,  4 beta functions with:
                l(1) =   0
                l(2) =   0
                l(3) =   1
                l(4) =   1
     Q(r) pseudized with 0 coefficients

     atomic species   valence    mass     pseudopotential
     H                 1.00     1.00750     H ( 1.00)
     Zr               12.00    91.22400     Zr( 1.00)
     C                 4.00    12.01060     C ( 1.00)
     O                 6.00    15.99900     O ( 1.00)

      2 Sym. Ops., with inversion, found

   Cartesian axes

     site n.     atom                  positions (alat units)
         1        Zr     tau(   1) = (   0.9851027   0.1391082   0.1016587  )
         2        Zr     tau(   2) = (   0.9592436   1.0218298   0.7299761  )
         3        Zr     tau(   3) = (   0.5914413   0.8003187   0.0990032  )
         4        Zr     tau(   4) = (   1.3529050   0.3606198   0.7326309  )
         5        Zr     tau(   5) = (   0.5897657   0.3540424   0.7259098  )
         6        Zr     tau(   6) = (   1.3545800   0.8068964   0.1057250  )
         7        O      tau(   7) = (   1.0813102   0.2536948   0.0705110  )
         8        O      tau(   8) = (   0.8630365   0.9072440   0.7611238  )
         9        O      tau(   9) = (   0.6435727   0.8815129   0.2175194  )
        10        O      tau(  10) = (   1.3007741   0.2794259   0.6141155  )
        11        O      tau(  11) = (   0.7362778   0.3343108   0.7646534  )
        12        O      tau(  12) = (   1.2080689   0.8266280   0.0669815  )
        13        O      tau(  13) = (   1.2129753   0.3069371   0.7631532  )
        14        O      tau(  14) = (   0.7313714   0.8540017   0.0684817  )
        15        O      tau(  15) = (   1.2984364   0.6781963   0.0450781  )
        16        O      tau(  16) = (   0.6459104   0.4827425   0.7865568  )
        17        O      tau(  17) = (   0.8456077   1.0192882   0.6276320  )
        18        O      tau(  18) = (   1.0987390   0.1416506   0.2040028  )
        19        O      tau(  19) = (   1.0496874   1.0173912   0.6102479  )
        20        O      tau(  20) = (   0.8946594   0.1435476   0.2213870  )
        21        O      tau(  21) = (   1.2947573   0.4946919   0.7669510  )
        22        O      tau(  22) = (   0.6495894   0.6662469   0.0646839  )
        23        O      tau(  23) = (   1.3935781   0.7198291   0.2216258  )
        24        O      tau(  24) = (   0.5507686   0.4411097   0.6100091  )
        25        O      tau(  25) = (   0.5500744   0.7116369   0.2154499  )
        26        O      tau(  26) = (   1.3942723   0.4493020   0.6161849  )
        27        O      tau(  27) = (   0.6420824   0.2788588   0.6044774  )
        28        O      tau(  28) = (   1.3022643   0.8820800   0.2271574  )
        29        O      tau(  29) = (   0.8874101   0.2511807   0.0695429  )
        30        O      tau(  30) = (   1.0569367   0.9097581   0.7620920  )
        31        O      tau(  31) = (   0.8779399   0.0527690   0.0396895  )
        32        O      tau(  32) = (   1.0664068   1.1081698   0.7919453  )
        33        O      tau(  33) = (   0.4644993   0.7469917   0.0371936  )
        34        O      tau(  34) = (   1.4798475   0.4139471   0.7944413  )
        35        O      tau(  35) = (   0.4629250   0.2781934   0.6953060  )
        36        O      tau(  36) = (   1.4814218   0.8827454   0.1363289  )
        37        C      tau(  37) = (   1.3136767   0.9631299   0.2572053  )
        38        C      tau(  38) = (   0.6306700   0.1978089   0.5744295  )
        39        C      tau(  39) = (   1.1103523   0.8939388   0.8291632  )
        40        C      tau(  40) = (   0.8339944   0.2670000   0.0024717  )
        41        C      tau(  41) = (   1.4710374   0.4686144   0.5796267  )
        42        C      tau(  42) = (   0.4733094   0.6923244   0.2520082  )
        43        C      tau(  43) = (   0.8010489   0.8978008   0.8217477  )
        44        C      tau(  44) = (   1.1432978   0.2631380   0.0098871  )
        45        C      tau(  45) = (   1.3192249   0.1990689   0.5856690  )
        46        C      tau(  46) = (   0.6251218   0.9618699   0.2459659  )
        47        C      tau(  47) = (   1.1703505   0.8679114   0.0000475  )
        48        C      tau(  48) = (   0.7739962   0.2930274   0.8315874  )
        49        C      tau(  49) = (   1.1900008   0.3542087   0.0042498  )
        50        C      tau(  50) = (   0.7543460   0.8067301   0.8273850  )
        51        C      tau(  51) = (   0.6683722   0.9916162   0.3340078  )
        52        C      tau(  52) = (   1.2759746   0.1693226   0.4976270  )
        53        C      tau(  53) = (   0.8763219   0.2870181   0.8314247  )
        54        C      tau(  54) = (   1.0680248   0.8739207   0.0002102  )
        55        C      tau(  55) = (   0.6845059   0.1687816   0.4922646  )
        56        C      tau(  56) = (   1.2598408   0.9921572   0.3393703  )
        57        C      tau(  57) = (   0.7828253   0.3557273   0.0014235  )
        58        C      tau(  58) = (   1.1615215   0.8052115   0.8302113  )
        59        C      tau(  59) = (   0.4732942   0.6342073   0.3363549  )
        60        C      tau(  60) = (   1.4710525   0.5267315   0.4952799  )
[...]
        94        H      tau(  94) = (   1.3245856   0.5432820   0.4945849  )
        95        H      tau(  95) = (   0.7498760   0.2999339   0.4763718  )
        96        H      tau(  96) = (   1.1944707   0.8610049   0.3552630  )
        97        H      tau(  97) = (   0.7299071   0.8601184   0.3593436  )
        98        H      tau(  98) = (   1.2144396   0.3008205   0.4722913  )
        99        H      tau(  99) = (   0.8893850   0.3498791   0.6987672  )
       100        H      tau( 100) = (   1.0549617   0.8110597   0.1328677  )
       101        H      tau( 101) = (   1.1034321   0.4156950   0.1064522  )
       102        H      tau( 102) = (   0.8409146   0.7452438   0.7251827  )
       103        H      tau( 103) = (   0.8040190   0.9099254   0.5062597  )
       104        H      tau( 104) = (   1.1403277   0.2510134   0.3253751  )
       105        H      tau( 105) = (   1.0611051   0.3415316   0.6986554  )
       106        H      tau( 106) = (   0.8832417   0.8194073   0.1329795  )
[...]
H                0.1184463599        0.8401879452        0.6087863156
H                0.8815536401        0.1598120548        0.3912136844
H                0.6087872743        0.1184451323        0.8401877242
H                0.3912127257        0.8815548677        0.1598122758
H                0.8401883763        0.6087848641        0.1184481496
H                0.1598116237        0.3912151359        0.8815518504

     Writing config-only to output data dir ./pwscf.save/ :
     XML data file
     NEW-OLD atomic charge density approx. for the potential

     Check: negative core charge=   -0.000001

[...]

     Self-consistent Calculation

[...]

     Threshold (ethr) on eigenvalues was too large:
     Diagonalizing with lowered threshold

     Davidson diagonalization with overlap
     ethr =  2.96E-12,  avg # of iterations = 10.0

[...]

     total energy              =   -4009.17199653 Ry
     estimated scf accuracy    <          6.8E-10 Ry

     iteration #  4     ecut=    80.00 Ry     beta= 0.70
     Davidson diagonalization with overlap
     ethr =  1.45E-13,  avg # of iterations =  8.0

[...]

     End of self-consistent calculation

          k = 0.0000 0.0000 0.0000 ( 92363 PWs)   bands (ev):

   -49.6139 -49.5975 -49.5974 -49.5853 -49.5833 -49.5832 -28.1040 -28.0009
   -28.0009 -27.9075 -27.9075 -27.8995 -27.7721 -27.7272 -27.7272 -27.7205
   -27.7205 -27.6940 -27.6215 -27.6215 -27.5858 -27.5721 -27.5721 -27.5716
   -22.8389 -22.7918 -22.7918 -22.7861 -22.7860 -22.7606 -22.5839 -22.5773
   -22.5199 -22.5199 -22.5176 -22.5175 -20.5523 -20.5361 -20.5361 -20.5065
   -20.5065 -20.4709 -20.3469 -20.3469 -20.3235 -20.3235 -20.2401 -20.2360
   -17.9946 -17.7622 -17.7621 -17.5683 -17.5683 -17.5260 -17.3915 -17.3904
   -17.3904 -17.2135 -17.2135 -17.2113 -15.0494 -15.0494 -15.0400 -14.8615
   -14.8408 -14.8408 -14.4880 -14.4857 -14.4857 -14.3140 -14.3140 -14.3119
   -12.2908 -12.2546 -12.2545 -12.0949 -12.0362 -12.0362 -10.9629 -10.9628
   -10.9514 -10.7860 -10.7860 -10.7692 -10.2308 -10.2308 -10.1497 -10.0275
    -9.8539  -9.8539  -9.6148  -9.5557  -9.5557  -9.4462  -9.3766  -9.3766
    -8.7838  -8.6120  -8.5365  -8.5365  -8.3946  -8.3946  -8.3542  -8.1970
    -8.1970  -8.1492  -8.1492  -7.8691  -7.8666  -7.8666  -7.7621  -7.7621
    -7.6627  -7.6482  -7.6481  -7.6393  -7.5377  -7.3852  -7.3852  -7.2539
    -7.1552  -6.9172  -6.9172  -6.8586  -6.8322  -6.8317  -6.8317  -6.7357
    -6.7357  -6.6986  -6.6885  -6.6885  -6.6665  -6.6665  -6.6558  -6.5692
    -6.5339  -6.5339  -6.5117  -6.4522  -6.4247  -6.4247  -6.3474  -6.3473
    -6.2150  -6.1883  -6.1883  -6.0315  -6.0315  -6.0141  -5.7281  -5.6341
    -5.6341  -5.4574  -5.2480  -5.2480  -5.1308  -5.0006  -4.9572  -4.9571
    -4.8900  -4.8900  -4.8896  -4.8895  -4.8659  -4.7826  -4.7678  -4.7678
    -4.7315  -4.2506  -4.2506  -4.1976  -4.1501  -4.1501  -4.1501  -4.1437
    -4.1437  -3.9862  -3.9862  -3.9773  -3.9772  -3.9593  -3.8051  -3.6425
    -3.6425  -3.6106  -3.5193  -3.4023  -3.3712  -3.3712  -3.2984  -3.2417
    -3.2416  -3.2066  -3.1673  -3.1673  -3.0819  -3.0422  -3.0422  -2.9791
    -2.9791  -2.9224  -2.9224  -2.8176  -2.7472  -2.6838  -2.6838  -2.6833
    -2.6361  -2.6361  -2.5824  -2.5824  -2.5317  -2.5307  -2.5307  -2.4833
    -2.4261  -2.4261  -2.3922  -2.3788  -2.3780  -2.3723  -2.3723  -2.3446
    -2.3446  -2.2858  -2.2390  -2.2389  -2.1742  -2.1742  -2.1576  -1.6319
    -1.6319  -1.4964

     highest occupied level (ev):    -1.4964

!    total energy              =   -4009.17199653 Ry
     total all-electron energy =    -51389.589103 Ry
     estimated scf accuracy    <          5.7E-11 Ry

     The total energy is the sum of the following terms:
     one-electron contribution =   -6098.79542110 Ry
     hartree contribution      =    3180.88326968 Ry
     xc contribution           =    -570.38676941 Ry
     ewald contribution        =    1322.84443396 Ry
     one-center paw contrib.   =   -1843.71750965 Ry

     convergence has been achieved in   4 iterations

     negative rho (up, down):  5.013E-04 0.000E+00

     Forces acting on atoms (cartesian axes, Ry/au):

     atom    1 type  2   force =    -0.00001060   -0.00001116    0.00000926
     atom    2 type  2   force =     0.00001060    0.00001116   -0.00000926
     atom    3 type  2   force =     0.00000069   -0.00001208   -0.00001204
     atom    4 type  2   force =    -0.00000069    0.00001208    0.00001204
     atom    5 type  2   force =    -0.00001126    0.00000722   -0.00000413
     atom    6 type  2   force =     0.00001126   -0.00000722    0.00000413
     atom    7 type  4   force =    -0.00001844   -0.00000743    0.00002386
     atom    8 type  4   force =     0.00001844    0.00000743   -0.00002386
     atom    9 type  4   force =     0.00000529   -0.00001032   -0.00000984
     atom   10 type  4   force =    -0.00000529    0.00001032    0.00000984
     atom   11 type  4   force =    -0.00000581    0.00000489   -0.00000053
     atom   12 type  4   force =     0.00000581   -0.00000489    0.00000053
     atom   13 type  4   force =     0.00002389    0.00000481   -0.00001038
     atom   14 type  4   force =    -0.00002389   -0.00000481    0.00001038
     atom   15 type  4   force =     0.00001294    0.00001020   -0.00000689
     atom   16 type  4   force =    -0.00001294   -0.00001020    0.00000689
     atom   17 type  4   force =     0.00000884    0.00000389    0.00001598
     atom   18 type  4   force =    -0.00000884   -0.00000389   -0.00001598
     atom   19 type  4   force =    -0.00000460   -0.00000324    0.00000006
     atom   20 type  4   force =     0.00000460    0.00000324   -0.00000006
     atom   21 type  4   force =    -0.00000206    0.00000352    0.00000553
     atom   22 type  4   force =     0.00000206   -0.00000352   -0.00000553
     atom   23 type  4   force =    -0.00000951   -0.00000212    0.00000141
     atom   24 type  4   force =     0.00000951    0.00000212   -0.00000141
     atom   25 type  4   force =    -0.00002315   -0.00000870    0.00001270
     atom   26 type  4   force =     0.00002315    0.00000870   -0.00001270
     atom   27 type  4   force =     0.00000089   -0.00000449   -0.00000768
     atom   28 type  4   force =    -0.00000089    0.00000449    0.00000768
     atom   29 type  4   force =     0.00000847   -0.00000231    0.00001308
     atom   30 type  4   force =    -0.00000847    0.00000231   -0.00001308
     atom   31 type  4   force =     0.00000020    0.00000934    0.00001036
     atom   32 type  4   force =    -0.00000020   -0.00000934   -0.00001036
     atom   33 type  4   force =     0.00001006   -0.00000592    0.00000095
     atom   34 type  4   force =    -0.00001006    0.00000592   -0.00000095
     atom   35 type  4   force =     0.00000775    0.00000425   -0.00000742
     atom   36 type  4   force =    -0.00000775   -0.00000425    0.00000742
     atom   37 type  3   force =    -0.00000869   -0.00001554    0.00000885
     atom   38 type  3   force =     0.00000869    0.00001554   -0.00000885
     atom   39 type  3   force =     0.00001402   -0.00000998    0.00000414
     atom   40 type  3   force =    -0.00001402    0.00000998   -0.00000414
     atom   41 type  3   force =    -0.00004961    0.00000306    0.00000755
     atom   42 type  3   force =     0.00004961   -0.00000306   -0.00000755
     atom   43 type  3   force =    -0.00001815   -0.00000749    0.00001207
     atom   44 type  3   force =     0.00001815    0.00000749   -0.00001207
     atom   45 type  3   force =    -0.00001144    0.00000510   -0.00000907
     atom   46 type  3   force =     0.00001144   -0.00000510    0.00000907
     atom   47 type  3   force =    -0.00001583   -0.00001671    0.00002707
     atom   48 type  3   force =     0.00001583    0.00001671   -0.00002707
     atom   49 type  3   force =    -0.00001611   -0.00000230    0.00002493
     atom   50 type  3   force =     0.00001611    0.00000230   -0.00002493
     atom   51 type  3   force =    -0.00000341    0.00000855   -0.00001683
     atom   52 type  3   force =     0.00000341   -0.00000855    0.00001683
     atom   53 type  3   force =    -0.00001807    0.00000263    0.00001449
     atom   54 type  3   force =     0.00001807   -0.00000263   -0.00001449
     atom   55 type  3   force =     0.00000835    0.00000716    0.00000126
     atom   56 type  3   force =    -0.00000835   -0.00000716   -0.00000126
     atom   57 type  3   force =     0.00000297   -0.00001013   -0.00001382
     atom   58 type  3   force =    -0.00000297    0.00001013    0.00001382
     atom   59 type  3   force =    -0.00003225    0.00000508    0.00000543
     atom   60 type  3   force =     0.00003225   -0.00000508   -0.00000543
[...]
     atom   94 type  1   force =     0.00000661    0.00000586    0.00000780
     atom   95 type  1   force =    -0.00000963    0.00000485   -0.00000209
     atom   96 type  1   force =     0.00000963   -0.00000485    0.00000209
     atom   97 type  1   force =     0.00001205    0.00000013    0.00000188
     atom   98 type  1   force =    -0.00001205   -0.00000013   -0.00000188
     atom   99 type  1   force =     0.00000700    0.00001072   -0.00000173
     atom  100 type  1   force =    -0.00000700   -0.00001072    0.00000173
     atom  101 type  1   force =     0.00000176    0.00000605    0.00001322
     atom  102 type  1   force =    -0.00000176   -0.00000605   -0.00001322
     atom  103 type  1   force =     0.00001000    0.00001208    0.00000737
     atom  104 type  1   force =    -0.00001000   -0.00001208   -0.00000737
     atom  105 type  1   force =     0.00001501    0.00000398    0.00000755
     atom  106 type  1   force =    -0.00001501   -0.00000398   -0.00000755
     atom  107 type  1   force =     0.00001879    0.00000015   -0.00000554
     atom  108 type  1   force =    -0.00001879   -0.00000015    0.00000554

     Total force =     0.000219     Total SCF correction =     0.000020

     Computing stress (Cartesian axis) and pressure

     negative rho (up, down):  5.013E-04 0.000E+00
          total   stress  (Ry/bohr**3)                   (kbar)     P=        0.00
   0.00000003  -0.00000000   0.00000000            0.00       -0.00        0.00
  -0.00000000   0.00000002  -0.00000001           -0.00        0.00       -0.00
   0.00000000  -0.00000001   0.00000003            0.00       -0.00        0.00

     Message from routine bfgs:
     history already reset at previous step: exiting
     Energy error            =      1.0E-08 Ry
     Gradient error          =      5.0E-05 Ry/Bohr
     Cell gradient error     =      4.4E-03 kbar

     bfgs failed after  10 scf cycles and   9 bfgs steps, convergence not achieved
     (criteria: energy <  3.6E-06 Ry, force <  1.0E-05 Ry/Bohr, cell <  5.0E-01 kbar)

     End of BFGS Geometry Optimization

     Final enthalpy           =   -4009.1719965253 Ry

     File ./pwscf.bfgs deleted, as requested
Begin final coordinates
     new unit-cell volume =  15298.42911 a.u.^3 (  2266.99330 Ang^3 )
     density =      1.19249 g/cm^3

CELL_PARAMETERS (alat= 27.59009591)
   0.997641308   0.000086678   0.000061790
   0.473330308   0.878207098   0.000062092
   0.473330068   0.282618143   0.831489943

ATOMIC_POSITIONS (crystal)
Zr               0.8730099225        0.1189798229        0.1221855116
Zr               0.1269900775        0.8810191771        0.8778144884
Zr               0.1221863703        0.8730096410        0.1189792275
Zr               0.8778136297        0.1269903590        0.8810197725
Zr               0.1189792255        0.1221858162        0.8730092783
Zr               0.8810197745        0.8778141838        0.1269907217
O                0.9195926067        0.2615030774        0.0847363834
O                0.0804073933        0.7384969226        0.9152636166
O                0.0847369548        0.9195910388        0.2615036670
O                0.9152630452        0.0804089612        0.7384963330
O                0.2615036338        0.0847370665        0.9195904270
O                0.7384963662        0.9152629335        0.0804095730
O                0.7547303508        0.0540604143        0.9177479573
O                0.2452696492        0.9459395857        0.0822520427
O                0.9177469220        0.7547296368        0.0540625927
O                0.0822530780        0.2452703632        0.9459374073
O                0.0540617047        0.9177479592        0.7547297018
O                0.9459382953        0.0822520408        0.2452702982
O                0.2663817933        0.9222946315        0.7338095314
O                0.7336182067        0.0777053685        0.2661904686
O                0.7338091953        0.2663812094        0.9222960418
O                0.2661908047        0.7336187906        0.0777039582
O                0.9222964937        0.7338096380        0.2663812557
O                0.0777035063        0.2661903620        0.7336187443
O                0.0835432954        0.7269646913        0.2590472950
O                0.9164567046        0.2730353087        0.7409527050
O                0.2590469254        0.0835413352        0.7269649321
O                0.7409530746        0.9164586648        0.2730350679
O                0.7269648261        0.2590481491        0.0835417307
O                0.2730351739        0.7409518509        0.9164582693
O                0.8362121018        0.0446449769        0.0476502792
O                0.1637878982        0.9553550231        0.9523497208
O                0.0476504254        0.8362114030        0.0446453050
O                0.9523495746        0.1637885970        0.9553546950
O                0.0446441682        0.0476498255        0.8362129484
O                0.9553558318        0.9523501745        0.1637870516
C                0.6969898725        0.9971123321        0.3091840395
C                0.3030101275        0.0028876679        0.6908159605
C                0.3091839498        0.6969896922        0.9971110924
C                0.6908160502        0.3030103078        0.0028889076
C                0.9971114030        0.3091841791        0.6969895033
C                0.0028885970        0.6908158209        0.3030104967
C               -0.0000764562        0.7042698362        0.9881981981
C                1.0000764562        0.2957301638        0.0118018019
C                0.9881981397       -0.0000757243        0.7042694593
C                0.0118018603        1.0000757243        0.2957305407
C                0.7042699248        0.9881978689       -0.0000760455
C                0.2957300752        0.0118021311        1.0000760455
C                0.9998688526        0.4016195710        0.0050009141
C                0.0001311474        0.5983804290        0.9949990859
C                0.0050014605        0.9998676480        0.4016199216
C                0.9949985395        0.0001323520        0.5983800784
C                0.4016197794        0.0050018635        0.9998676259
C                0.5983802206        0.9949981365        0.0001323741
C                0.4044603391        0.0016330269        0.5919897706
C                0.5955396609        0.9983669731        0.4080102294
C                0.5919896507        0.4044607883        0.0016337542
C                0.4080103493        0.5955392117        0.9983662458
C                0.0016345397        0.5919899217        0.4044604658
C                0.9983654603        0.4080100783        0.5955395342
[...]
H                0.8428615830        0.4271558028        0.5947021372
H                0.4052962056        0.1571373385        0.5728456696
H                0.5947037944        0.8428626615        0.4271543304
H                0.1279328836        0.8403151748        0.4320927837
H                0.8720671164        0.1596848252        0.5679072163
H                0.4320930966        0.1279319526        0.8403147330
H                0.5679069034        0.8720680474        0.1596852670
H                0.8403169118        0.4320904696        0.1279343908
H                0.1596830882        0.5679095304        0.8720656092
H                0.1184463599        0.8401879452        0.6087863156
H                0.8815536401        0.1598120548        0.3912136844
H                0.6087872743        0.1184451323        0.8401877242
H                0.3912127257        0.8815548677        0.1598122758
H                0.8401883763        0.6087848641        0.1184481496
H                0.1598116237        0.3912151359        0.8815518504
End final coordinates

     Writing config-only to output data dir ./pwscf.save/ :
     XML data file

     Writing all to output data dir ./pwscf.save/ :
     XML data file, charge density, pseudopotentials, collected wavefunctions

     General routines

     Parallel routines

   This run was terminated on:  12:39:39   3Jun2025

   JOB DONE.