     Program PWSCF v.7.3.1 starts on 12Jun2025 at 13:32:21

     Waiting for input...
     Reading input from standard input

     Current dimensions of program PWSCF are:
     Max number of different atomic species (ntypx) = 10
     Max number of k-points (npk) =  40000
     Max angular momentum in pseudopotentials (lmaxx) =  4
     file H.pbe-kjpaw_psl.1.0.0.UPF: wavefunction(s)  1S renormalized
     file Zr.pbe-spn-kjpaw_psl.1.0.0.UPF: wavefunction(s)  4S 4P renormalized
     file C.pbe-n-kjpaw_psl.1.0.0.UPF: wavefunction(s)  2S 2P renormalized
     file O.pbe-n-kjpaw_psl.1.0.0.UPF: wavefunction(s)  2S 2P renormalized
     file N.pbe-n-kjpaw_psl.1.0.0.UPF: wavefunction(s)  2S renormalized

     IMPORTANT: XC functional enforced from input :
     Exchange-correlation= PBE
                           (   1   4   3   4   0   0   0)
     Any further DFT definition will be discarded
     Please, verify this is what you really want

     gamma-point specific algorithms are used

     R & G space division:  proc/nbgrp/npool/nimage =     256
     wavefunctions fft division:  task group distribution
                                  #TG    x Z-proc =       8     32
     Subspace diagonalization in iterative solution of the eigenvalue problem:
     one sub-group per band group will be used

     Using Pencil Decomposition

     Title:
     UiO-66-NH2-dehydrox GeomOpt

     bravais-lattice index     =            0
     lattice parameter (alat)  =      27.5206  a.u.
     unit-cell volume          =   15323.5057 (a.u.)^3
     number of atoms/cell      =          120
     number of atomic types    =            5
     number of electrons       =       504.00
     number of Kohn-Sham states=          252
     kinetic-energy cutoff     =     150.0000  Ry
     charge density cutoff     =     900.0000  Ry
     scf convergence threshold =      1.0E-08
     mixing beta               =       0.7000
     number of iterations used =            8  plain     mixing
     energy convergence thresh.=      3.6E-06
     force convergence thresh. =      1.0E-03
     press convergence thresh. =      5.0E-01
     Exchange-correlation= PBE
                           (   1   4   3   4   0   0   0)
     nstep                     =          750

     celldm(1)=  27.520592  celldm(2)=   0.000000  celldm(3)=   0.000000
     celldm(4)=   0.000000  celldm(5)=   0.000000  celldm(6)=   0.000000

     crystal axes: (cart. coord. in units of alat)
               a(1) = (   0.999446  -0.001436  -0.001029 )
               a(2) = (   0.472799   0.880543  -0.001029 )
               a(3) = (   0.472799   0.282318   0.834058 )

     reciprocal axes: (cart. coord. in units 2 pi/alat)
               b(1) = (  0.999387 -0.537061 -0.384730 )
               b(2) = (  0.001234  1.134551 -0.384730 )
               b(3) = (  0.001234  0.000737  1.198008 )

     PseudoPot. # 1 for H  read from file:
     /home/mehlhorn/pseudos/UiO-66_pbe-spn-kjpaw/H.pbe-kjpaw_psl.1.0.0.UPF
     MD5 check sum: d81a744832360e4a8af0b0b5b123bc2a
     Pseudo is Projector augmented-wave, Zval =  1.0
     Generated using &quot;atomic&quot; code by A. Dal Corso  v.6.3MaX
     Shape of augmentation charge: PSQ
     Using radial grid of  929 points,  2 beta functions with:
                l(1) =   0
                l(2) =   0
     Q(r) pseudized with 0 coefficients

     PseudoPot. # 2 for Zr read from file:
     /home/mehlhorn/pseudos/UiO-66_pbe-spn-kjpaw/Zr.pbe-spn-kjpaw_psl.1.0.0.UPF
     MD5 check sum: 02112c41713a0468aff2bb39ef194e36
     Pseudo is Projector augmented-wave + core cor, Zval = 12.0
     Generated using &quot;atomic&quot; code by A. Dal Corso  v.6.2.2
     Shape of augmentation charge: PSQ
     Using radial grid of 1225 points,  6 beta functions with:
                l(1) =   0
                l(2) =   0
                l(3) =   1
                l(4) =   1
                l(5) =   2
                l(6) =   2
     Q(r) pseudized with 0 coefficients

     PseudoPot. # 3 for C  read from file:
     /home/mehlhorn/pseudos/UiO-66_pbe-spn-kjpaw/C.pbe-n-kjpaw_psl.1.0.0.UPF
     MD5 check sum: 5f16ad9a65e90284d1d834d4ab3b0f7d
     Pseudo is Projector augmented-wave + core cor, Zval =  4.0
     Generated using &quot;atomic&quot; code by A. Dal Corso  v.6.3
     Shape of augmentation charge: PSQ
     Using radial grid of 1073 points,  4 beta functions with:
                l(1) =   0
                l(2) =   0
                l(3) =   1
                l(4) =   1
     Q(r) pseudized with 0 coefficients

     PseudoPot. # 4 for O  read from file:
     /home/mehlhorn/pseudos/UiO-66_pbe-spn-kjpaw/O.pbe-n-kjpaw_psl.1.0.0.UPF
     MD5 check sum: e99d9cef9b487d1ca56f5b95ecd0fd7a
     Pseudo is Projector augmented-wave + core cor, Zval =  6.0
     Generated using &quot;atomic&quot; code by A. Dal Corso  v.6.3
     Shape of augmentation charge: PSQ
     Using radial grid of 1095 points,  4 beta functions with:
                l(1) =   0
                l(2) =   0
                l(3) =   1
                l(4) =   1
     Q(r) pseudized with 0 coefficients

     PseudoPot. # 5 for N  read from file:
     /home/mehlhorn/pseudos/UiO-66_pbe-spn-kjpaw/N.pbe-n-kjpaw_psl.1.0.0.UPF
     MD5 check sum: 14c48229446f9f2d411169a3abcbc3fa
     Pseudo is Projector augmented-wave + core cor, Zval =  5.0
     Generated using &quot;atomic&quot; code by A. Dal Corso  v.6.3
     Shape of augmentation charge: PSQ
     Using radial grid of 1085 points,  4 beta functions with:
                l(1) =   0
                l(2) =   0
                l(3) =   1
                l(4) =   1
     Q(r) pseudized with 0 coefficients

     atomic species   valence    mass     pseudopotential
     H                 1.00     1.00750     H ( 1.00)
     Zr               12.00    91.22400     Zr( 1.00)
     C                 4.00    12.01060     C ( 1.00)
     O                 6.00    15.99900     O ( 1.00)
     N                 5.00    14.00650     N ( 1.00)

     No symmetry found

   Cartesian axes

     site n.     atom                  positions (alat units)
         1        Zr     tau(   1) = (   0.9900351   0.1395721   0.1028148  )
         2        Zr     tau(   2) = (   0.5948311   0.8041031   0.0990732  )
         3        Zr     tau(   3) = (   0.5924712   0.3564570   0.7294772  )
         4        Zr     tau(   4) = (   1.3593131   0.8096220   0.1042222  )
         5        Zr     tau(   5) = (   0.9609403   1.0263134   0.7330459  )
         6        Zr     tau(   6) = (   1.3575073   0.3601294   0.7359093  )
         7        O      tau(   7) = (   1.0822206   0.2556387   0.0706772  )
         8        O      tau(   8) = (   0.6446423   0.8819793   0.2193084  )
         9        O      tau(   9) = (   0.7383762   0.3344255   0.7645307  )
        10        O      tau(  10) = (   1.3050849   0.2843358   0.6141994  )
        11        O      tau(  11) = (   0.8693500   0.9077934   0.7625462  )
        12        O      tau(  12) = (   1.2115304   0.8296993   0.0716142  )
        13        O      tau(  13) = (   1.3021148   0.6833735   0.0362806  )
        14        O      tau(  14) = (   1.2192337   0.2988655   0.7667885  )
        15        O      tau(  15) = (   0.7345818   0.8622163   0.0677781  )
        16        O      tau(  16) = (   0.8414196   1.0257378   0.6353683  )
        17        O      tau(  17) = (   0.8821769   0.0540665   0.0408540  )
        18        O      tau(  18) = (   0.4678065   0.7500255   0.0380477  )
        19        O      tau(  19) = (   0.6491321   0.4846731   0.7945690  )
        20        O      tau(  20) = (   1.1074825   0.1406542   0.2032725  )
        21        O      tau(  21) = (   0.6534953   0.6702597   0.0664010  )
        22        O      tau(  22) = (   0.5551547   0.4432001   0.6132612  )
        23        O      tau(  23) = (   0.8912274   0.2537272   0.0678963  )
        24        O      tau(  24) = (   1.3962336   0.7205419   0.2189193  )
        25        O      tau(  25) = (   1.0488275   1.0208990   0.6118008  )
        26        O      tau(  26) = (   1.2965981   0.4927793   0.7697897  )
        27        O      tau(  27) = (   0.4660363   0.2802902   0.6979083  )
        28        O      tau(  28) = (   1.3089800   0.8852955   0.2274430  )
        29        O      tau(  29) = (   0.5511899   0.7153797   0.2183932  )
        30        O      tau(  30) = (   1.4858087   0.8853650   0.1351118  )
        31        O      tau(  31) = (   1.4841876   0.4136454   0.7973944  )
        32        O      tau(  32) = (   1.0681407   1.1122427   0.7948240  )
        33        O      tau(  33) = (   1.4002517   0.4509953   0.6203258  )
        34        O      tau(  34) = (   0.6461007   0.2779890   0.6070828  )
        35        O      tau(  35) = (   1.0612093   0.9151157   0.7650530  )
        36        O      tau(  36) = (   0.9000321   0.1456770   0.2223356  )
        37        N      tau(  37) = (   1.0714438   0.4367846   0.0960603  )
        38        N      tau(  38) = (   0.7119933   0.8334486   0.3826577  )
        39        N      tau(  39) = (   0.8927354   0.3277623   0.6660268  )
        40        N      tau(  40) = (   1.3035223   0.6479163   0.3587113  )
        41        N      tau(  41) = (   1.1886863   0.6099629   0.6801534  )
        42        N      tau(  42) = (   1.1008050   0.8875820   0.4980622  )
        43        C      tau(  43) = (   0.8040020   0.9013582   0.8203017  )
        44        C      tau(  44) = (   1.3204081   0.2018493   0.5895252  )
        45        C      tau(  45) = (   0.1557334   0.0832754   0.2491964  )
        46        C      tau(  46) = (   1.1748689   0.8668573   0.0014535  )
        47        C      tau(  47) = (   0.1910103   0.3589529   0.0061845  )
        48        C      tau(  48) = (   0.4066049   0.0051788  -0.0039831  )
        49        C      tau(  49) = (   0.3051705   0.0124762  -0.0013245  )
        50        C      tau(  50) = (   0.1471801   0.2673477   0.0122387  )
        51        C      tau(  51) = (   1.1519119   0.4373571   0.0474079  )
        52        C      tau(  52) = (   0.7097701   0.9260516   0.3988519  )
        53        C      tau(  53) = (   0.7934923   0.7321772   0.7845492  )
        54        C      tau(  54) = (   1.2773572   0.1704730   0.5016588  )
        55        C      tau(  55) = (   0.7559594   0.8107582   0.8267775  )
        56        C      tau(  56) = (   1.0723214   0.8732078   0.0000129  )
        57        C      tau(  57) = (   0.1974220   0.1106009   0.3378791  )
        58        C      tau(  58) = (   1.1984927   0.2030724   0.3601715  )
        59        C      tau(  59) = (   1.1140866   0.8981334   0.8325402  )
        60        C      tau(  60) = (   1.3191110   0.9667624   0.2574336  )
[...]
       106        H      tau( 106) = (   0.7468695   0.2986547   0.4777646  )
       107        H      tau( 107) = (   1.2052459   0.8620847   0.3547956  )
       108        H      tau( 108) = (   1.0337338   0.3781417   0.0964754  )
       109        H      tau( 109) = (   1.0391455   0.4974451   0.1064925  )
       110        H      tau( 110) = (   1.3306146   0.5457383   0.5033102  )
[...]
     Q(r) pseudized with 0 coefficients

     atomic species   valence    mass     pseudopotential
     H                 1.00     1.00750     H ( 1.00)
     Zr               12.00    91.22400     Zr( 1.00)
     C                 4.00    12.01060     C ( 1.00)
     O                 6.00    15.99900     O ( 1.00)
     N                 5.00    14.00650     N ( 1.00)

     No symmetry found

   Cartesian axes

     site n.     atom                  positions (alat units)
         1        Zr     tau(   1) = (   0.9900351   0.1395721   0.1028148  )
         2        Zr     tau(   2) = (   0.5948311   0.8041031   0.0990732  )
         3        Zr     tau(   3) = (   0.5924712   0.3564570   0.7294772  )
         4        Zr     tau(   4) = (   1.3593131   0.8096220   0.1042222  )
         5        Zr     tau(   5) = (   0.9609403   1.0263134   0.7330459  )
         6        Zr     tau(   6) = (   1.3575073   0.3601294   0.7359093  )
         7        O      tau(   7) = (   1.0822206   0.2556387   0.0706772  )
         8        O      tau(   8) = (   0.6446423   0.8819793   0.2193084  )
         9        O      tau(   9) = (   0.7383762   0.3344255   0.7645307  )
        10        O      tau(  10) = (   1.3050849   0.2843358   0.6141994  )
        11        O      tau(  11) = (   0.8693500   0.9077934   0.7625462  )
        12        O      tau(  12) = (   1.2115304   0.8296993   0.0716142  )
        13        O      tau(  13) = (   1.3021148   0.6833735   0.0362806  )
        14        O      tau(  14) = (   1.2192337   0.2988655   0.7667885  )
        15        O      tau(  15) = (   0.7345818   0.8622163   0.0677781  )
        16        O      tau(  16) = (   0.8414196   1.0257378   0.6353683  )
        17        O      tau(  17) = (   0.8821769   0.0540665   0.0408540  )
        18        O      tau(  18) = (   0.4678065   0.7500255   0.0380477  )
        19        O      tau(  19) = (   0.6491321   0.4846731   0.7945690  )
        20        O      tau(  20) = (   1.1074825   0.1406542   0.2032725  )
        21        O      tau(  21) = (   0.6534953   0.6702597   0.0664010  )
        22        O      tau(  22) = (   0.5551547   0.4432001   0.6132612  )
        23        O      tau(  23) = (   0.8912274   0.2537272   0.0678963  )
        24        O      tau(  24) = (   1.3962336   0.7205419   0.2189193  )
        25        O      tau(  25) = (   1.0488275   1.0208990   0.6118008  )
        26        O      tau(  26) = (   1.2965981   0.4927793   0.7697897  )
        27        O      tau(  27) = (   0.4660363   0.2802902   0.6979083  )
        28        O      tau(  28) = (   1.3089800   0.8852955   0.2274430  )
        29        O      tau(  29) = (   0.5511899   0.7153797   0.2183932  )
        30        O      tau(  30) = (   1.4858087   0.8853650   0.1351118  )
        31        O      tau(  31) = (   1.4841876   0.4136454   0.7973944  )
        32        O      tau(  32) = (   1.0681407   1.1122427   0.7948240  )
        33        O      tau(  33) = (   1.4002517   0.4509953   0.6203258  )
        34        O      tau(  34) = (   0.6461007   0.2779890   0.6070828  )
        35        O      tau(  35) = (   1.0612093   0.9151157   0.7650530  )
        36        O      tau(  36) = (   0.9000321   0.1456770   0.2223356  )
        37        N      tau(  37) = (   1.0714438   0.4367846   0.0960603  )
        38        N      tau(  38) = (   0.7119933   0.8334486   0.3826577  )
        39        N      tau(  39) = (   0.8927354   0.3277623   0.6660268  )
        40        N      tau(  40) = (   1.3035223   0.6479163   0.3587113  )
        41        N      tau(  41) = (   1.1886863   0.6099629   0.6801534  )
        42        N      tau(  42) = (   1.1008050   0.8875820   0.4980622  )
        43        C      tau(  43) = (   0.8040020   0.9013582   0.8203017  )
        44        C      tau(  44) = (   1.3204081   0.2018493   0.5895252  )
        45        C      tau(  45) = (   0.1557334   0.0832754   0.2491964  )
        46        C      tau(  46) = (   1.1748689   0.8668573   0.0014535  )
        47        C      tau(  47) = (   0.1910103   0.3589529   0.0061845  )
        48        C      tau(  48) = (   0.4066049   0.0051788  -0.0039831  )
        49        C      tau(  49) = (   0.3051705   0.0124762  -0.0013245  )
        50        C      tau(  50) = (   0.1471801   0.2673477   0.0122387  )
        51        C      tau(  51) = (   1.1519119   0.4373571   0.0474079  )
        52        C      tau(  52) = (   0.7097701   0.9260516   0.3988519  )
        53        C      tau(  53) = (   0.7934923   0.7321772   0.7845492  )
        54        C      tau(  54) = (   1.2773572   0.1704730   0.5016588  )
        55        C      tau(  55) = (   0.7559594   0.8107582   0.8267775  )
        56        C      tau(  56) = (   1.0723214   0.8732078   0.0000129  )
        57        C      tau(  57) = (   0.1974220   0.1106009   0.3378791  )
        58        C      tau(  58) = (   1.1984927   0.2030724   0.3601715  )
        59        C      tau(  59) = (   1.1140866   0.8981334   0.8325402  )
        60        C      tau(  60) = (   1.3191110   0.9667624   0.2574336  )
[...]
       106        H      tau( 106) = (   0.7468695   0.2986547   0.4777646  )
       107        H      tau( 107) = (   1.2052459   0.8620847   0.3547956  )
       108        H      tau( 108) = (   1.0337338   0.3781417   0.0964754  )
       109        H      tau( 109) = (   1.0391455   0.4974451   0.1064925  )
       110        H      tau( 110) = (   1.3306146   0.5457383   0.5033102  )
       111        H      tau( 111) = (   1.2990852   0.6781594   0.2960359  )
       112        H      tau( 112) = (   1.0550237   0.9072087   0.5468616  )
       113        H      tau( 113) = (   1.2471294   0.6185331   0.3866549  )
       114        H      tau( 114) = (   0.7225495   0.7910729   0.4367365  )
       115        H      tau( 115) = (   1.2132064   0.5447479   0.6830368  )
       116        H      tau( 116) = (   0.9308179   0.3192346   0.6085054  )
       117        H      tau( 117) = (   0.6778428   0.8090133   0.3269988  )
       118        H      tau( 118) = (   0.8232224   0.3264236   0.6607974  )
       119        H      tau( 119) = (   1.1360708   0.6249329   0.6373533  )
       120        H      tau( 120) = (   1.0890267   0.8298703   0.4612515  )

     number of k points=     1
                       cart. coord. in units 2pi/alat
        k(    1) = (   0.0000000   0.0000000   0.0000000), wk =   2.0000000

     Initial potential from superposition of free atoms

     starting charge     503.9847, renormalised to     504.0000

     negative rho (up, down):  1.624E-07 0.000E+00
     Starting wfcs are  444 randomized atomic wfcs
     Checking if some PAW data can be deallocated...

     Self-consistent Calculation

[...]

     total energy              =   -4185.73348225 Ry
     estimated scf accuracy    <       0.00000002 Ry

     iteration # 29     ecut=   150.00 Ry     beta= 0.70
     Davidson diagonalization with overlap
     ethr =  4.34E-12,  avg # of iterations =  6.0

[...]

     End of self-consistent calculation

          k = 0.0000 0.0000 0.0000 (237704 PWs)   bands (ev):

   -49.2824 -49.2664 -49.2664 -49.2514 -49.2482 -49.2481 -27.7857 -27.6805
   -27.6805 -27.5786 -27.5786 -27.5708 -27.4376 -27.3942 -27.3941 -27.3873
   -27.3873 -27.3598 -27.2879 -27.2879 -27.2515 -27.2363 -27.2362 -27.2362
   -22.4728 -22.4341 -22.4341 -22.4086 -22.4085 -22.3911 -22.2179 -22.1737
   -22.1505 -22.1505 -22.1143 -22.1143 -20.1862 -20.1695 -20.1695 -20.1334
   -20.1334 -20.0984 -19.9625 -19.9625 -19.9115 -19.9115 -19.8623 -19.8266
   -18.7049 -18.7013 -18.7013 -18.4522 -18.4521 -18.4521 -17.6689 -17.4425
   -17.4425 -17.2488 -17.2488 -17.2146 -16.5674 -16.5674 -16.5668 -16.3437
   -16.3435 -16.3435 -14.6169 -14.6169 -14.6088 -14.3917 -14.3717 -14.3717
   -13.6574 -13.6574 -13.6531 -13.4378 -13.4371 -13.4371 -11.9894 -11.9632
   -11.9632 -11.7638 -11.7119 -11.7119 -10.6567 -10.6530 -10.6530 -10.4259
   -10.4259 -10.4159  -9.9309  -9.9309  -9.8051  -9.7215  -9.6144  -9.5516
    -9.5516  -9.5218  -9.5217  -9.3942  -9.3172  -9.3171  -8.6571  -8.6071
    -8.6071  -8.3992  -8.3520  -8.3520  -8.2488  -8.0937  -8.0937  -8.0089
    -7.9687  -7.9687  -7.8189  -7.7537  -7.7537  -7.6364  -7.6364  -7.5992
    -7.5144  -7.5143  -7.4379  -7.4379  -7.4225  -7.3300  -7.3202  -7.3202
    -7.2333  -7.1461  -7.1460  -6.9547  -6.9547  -6.9409  -6.9313  -6.8002
    -6.7585  -6.7585  -6.7220  -6.5389  -6.5389  -6.4429  -6.4429  -6.4184
    -6.3478  -6.2175  -6.2175  -6.1552  -6.0164  -6.0164  -6.0025  -5.9598
    -5.9598  -5.8872  -5.8624  -5.8623  -5.7545  -5.7545  -5.7439  -5.6590
    -5.6569  -5.6569  -5.4210  -5.3503  -5.3502  -5.1706  -5.0074  -4.9950
    -4.9950  -4.9367  -4.9367  -4.8058  -4.7667  -4.7480  -4.7480  -4.5927
    -4.5927  -4.5648  -4.5437  -4.5437  -4.4677  -4.0738  -4.0737  -4.0542
    -3.9340  -3.9206  -3.9206  -3.8688  -3.8688  -3.8180  -3.8180  -3.7710
    -3.6917  -3.6917  -3.5207  -3.3303  -3.3303  -3.3232  -3.2635  -3.2464
    -3.2464  -3.1892  -3.1461  -3.0844  -3.0844  -3.0351  -2.9984  -2.9984
    -2.9097  -2.9097  -2.9032  -2.7867  -2.7866  -2.7771  -2.7754  -2.6655
    -2.6654  -2.6167  -2.6167  -2.5585  -2.5585  -2.4938  -2.4005  -2.3602
    -2.3602  -2.3499  -2.2607  -2.2607  -2.2304  -2.1956  -2.1956  -2.1685
    -2.1394  -2.1394  -2.0569  -2.0554  -2.0553  -1.9752  -1.9752  -1.9460
    -1.7686  -1.7365  -1.7365  -1.3222  -1.3222  -1.1855  -0.6783  -0.6783
    -0.6643  -0.4591  -0.4416  -0.4416

     highest occupied level (ev):    -0.4416

!    total energy              =   -4185.73348225 Ry
     total all-electron energy =    -52053.943352 Ry
     estimated scf accuracy    <          5.2E-09 Ry

     The total energy is the sum of the following terms:
     one-electron contribution =   -6006.39038570 Ry
     hartree contribution      =    3151.87762950 Ry
     xc contribution           =    -609.65098286 Ry
     ewald contribution        =    1169.92869226 Ry
     one-center paw contrib.   =   -1891.49843545 Ry

     convergence has been achieved in  29 iterations

     negative rho (up, down):  8.351E-06 0.000E+00

     Forces acting on atoms (cartesian axes, Ry/au):

     atom    1 type  2   force =     0.00000211    0.00002167    0.00002089
     atom    2 type  2   force =     0.00001302   -0.00000862    0.00002382
     atom    3 type  2   force =     0.00002976    0.00000489   -0.00001381
     atom    4 type  2   force =    -0.00001560   -0.00001270    0.00000917
     atom    5 type  2   force =    -0.00000422   -0.00002762   -0.00001589
     atom    6 type  2   force =    -0.00004135    0.00000877   -0.00002686
     atom    7 type  4   force =    -0.00000374   -0.00000136   -0.00000138
     atom    8 type  4   force =    -0.00000236   -0.00000481   -0.00000199
     atom    9 type  4   force =    -0.00000666   -0.00000036   -0.00000589
     atom   10 type  4   force =     0.00000344   -0.00001016   -0.00000949
     atom   11 type  4   force =     0.00001049   -0.00000468   -0.00000648
     atom   12 type  4   force =     0.00000779   -0.00001081    0.00003058
     atom   13 type  4   force =    -0.00000920    0.00001170    0.00000781
     atom   14 type  4   force =    -0.00000390   -0.00000420    0.00000338
     atom   15 type  4   force =    -0.00000162   -0.00000906    0.00001697
     atom   16 type  4   force =     0.00001276   -0.00002262    0.00001410
     atom   17 type  4   force =     0.00001215    0.00000450    0.00001092
     atom   18 type  4   force =     0.00001215    0.00000396    0.00000558
     atom   19 type  4   force =     0.00001092   -0.00000953   -0.00001642
     atom   20 type  4   force =    -0.00001060    0.00001878   -0.00000389
     atom   21 type  4   force =     0.00000369    0.00000944    0.00001650
     atom   22 type  4   force =     0.00003250   -0.00000953    0.00000798
     atom   23 type  4   force =     0.00000908   -0.00000187    0.00001448
     atom   24 type  4   force =    -0.00000781    0.00000097   -0.00000604
     atom   25 type  4   force =    -0.00001045   -0.00000610    0.00000508
     atom   26 type  4   force =    -0.00000131   -0.00000164    0.00000205
     atom   27 type  4   force =     0.00001562    0.00000525    0.00000458
     atom   28 type  4   force =    -0.00000197   -0.00001213   -0.00000540
     atom   29 type  4   force =     0.00000860    0.00000079   -0.00000412
     atom   30 type  4   force =    -0.00001142   -0.00000416    0.00000181
     atom   31 type  4   force =    -0.00000605   -0.00000527   -0.00000700
     atom   32 type  4   force =    -0.00000662   -0.00000978   -0.00000341
     atom   33 type  4   force =     0.00000658    0.00000013   -0.00000204
     atom   34 type  4   force =     0.00000127    0.00001957    0.00000725
     atom   35 type  4   force =    -0.00001251    0.00000481   -0.00001356
     atom   36 type  4   force =     0.00000853    0.00001217   -0.00000653
     atom   37 type  5   force =    -0.00001754    0.00000776    0.00001424
     atom   38 type  5   force =    -0.00000096   -0.00002040   -0.00001397
     atom   39 type  5   force =     0.00000390    0.00000692   -0.00002244
     atom   40 type  5   force =    -0.00002510    0.00001049   -0.00002394
     atom   41 type  5   force =     0.00000462   -0.00002964   -0.00000797
     atom   42 type  5   force =    -0.00002560   -0.00001512    0.00001280
     atom   43 type  3   force =     0.00000299   -0.00001062   -0.00000018
     atom   44 type  3   force =    -0.00001580    0.00004581   -0.00000973
     atom   45 type  3   force =     0.00000242    0.00000629    0.00000845
     atom   46 type  3   force =    -0.00000281    0.00002114   -0.00003148
     atom   47 type  3   force =     0.00000447    0.00000674    0.00000521
     atom   48 type  3   force =     0.00000569    0.00000487    0.00000071
     atom   49 type  3   force =     0.00001175   -0.00000408    0.00000515
     atom   50 type  3   force =     0.00000399    0.00000804   -0.00000140
     atom   51 type  3   force =     0.00000876   -0.00000802    0.00000198
     atom   52 type  3   force =     0.00000752    0.00000500   -0.00000101
     atom   53 type  3   force =     0.00000450    0.00001110   -0.00000682
     atom   54 type  3   force =    -0.00000181   -0.00001257   -0.00000498
     atom   55 type  3   force =    -0.00000116   -0.00000681   -0.00000208
     atom   56 type  3   force =    -0.00000625   -0.00000355    0.00001033
     atom   57 type  3   force =     0.00000645    0.00000356    0.00000185
     atom   58 type  3   force =    -0.00000314   -0.00000750   -0.00000529
     atom   59 type  3   force =     0.00000210   -0.00001065    0.00000700
     atom   60 type  3   force =    -0.00000709    0.00000824    0.00000207
[...]
     atom  106 type  1   force =    -0.00000141   -0.00001289    0.00000002
     atom  107 type  1   force =    -0.00000390    0.00001148   -0.00000059
     atom  108 type  1   force =     0.00001000    0.00001108   -0.00000118
     atom  109 type  1   force =     0.00000920   -0.00001532   -0.00000525
     atom  110 type  1   force =     0.00001240   -0.00000316   -0.00000962
     atom  111 type  1   force =     0.00000416   -0.00001299    0.00002320
     atom  112 type  1   force =     0.00001577   -0.00000422   -0.00001828
     atom  113 type  1   force =     0.00000376   -0.00000104    0.00000069
     atom  114 type  1   force =    -0.00000300    0.00000817   -0.00000559
     atom  115 type  1   force =    -0.00000981    0.00002533    0.00000118
     atom  116 type  1   force =    -0.00001027    0.00000031    0.00001740
     atom  117 type  1   force =     0.00001098    0.00000986    0.00001721
     atom  118 type  1   force =     0.00001134    0.00000001    0.00000327
     atom  119 type  1   force =    -0.00000399    0.00000334   -0.00000007
     atom  120 type  1   force =     0.00000254    0.00000588    0.00000014

     Total force =     0.000202     Total SCF correction =     0.000219
     SCF correction compared to forces is large: reduce conv_thr to get better values

     Computing stress (Cartesian axis) and pressure

     negative rho (up, down):  8.351E-06 0.000E+00
          total   stress  (Ry/bohr**3)                   (kbar)     P=        0.05
   0.00000033   0.00000001   0.00000002            0.05        0.00        0.00
   0.00000001   0.00000031   0.00000000            0.00        0.05        0.00
   0.00000002   0.00000000   0.00000031            0.00        0.00        0.05

     Writing all to output data dir ./pwscf.save/ :
     XML data file, charge density, pseudopotentials, collected wavefunctions

     General routines

     Parallel routines

   This run was terminated on:  13:50:45  12Jun2025

   JOB DONE.