     Program PWSCF v.7.3.1 starts on 16Aug2025 at 16:38: 8

     Waiting for input...
     Reading input from standard input
Warning: card                                           ! GAMMA MUSS REICHEN UND REICHT FÃ¼R UIO-66 VERMUTLICH AUCH ignored

     Current dimensions of program PWSCF are:
     Max number of different atomic species (ntypx) = 10
     Max number of k-points (npk) =  40000
     Max angular momentum in pseudopotentials (lmaxx) =  4
     file H.pbe-mt_fhi.UPF: wavefunction(s)  2p 4f renormalized
     file Zr.pbe-mt_fhi.UPF: wavefunction(s)  4f renormalized
     file C.pbe-mt_fhi.UPF: wavefunction(s)  4f renormalized
     file O.pbe-mt_fhi.UPF: wavefunction(s)  4f renormalized

     IMPORTANT: XC functional enforced from input :
     Exchange-correlation= HSE
                           (   1   4  12   4   0   0   0)
     EXX-fraction              =        0.25
     Any further DFT definition will be discarded
     Please, verify this is what you really want

     Message from routine setup:
     no reason to have ecutrho>4*ecutwfc

     R & G space division:  proc/nbgrp/npool/nimage =     256
     wavefunctions fft division:  task group distribution
                                  #TG    x Z-proc =       8     32
     Subspace diagonalization in iterative solution of the eigenvalue problem:
     one sub-group per band group will be used

     EXX: q-point mesh:     1    1    1
     EXX: grid of k+q points same as grid of k-points

     Using Pencil Decomposition

     bravais-lattice index     =            0
     lattice parameter (alat)  =      27.5901  a.u.
     unit-cell volume          =   15298.4621 (a.u.)^3
     number of atoms/cell      =          108
     number of atomic types    =            4
     number of electrons       =       420.00
     number of Kohn-Sham states=          420
     kinetic-energy cutoff     =     150.0000  Ry
     charge density cutoff     =     900.0000  Ry
     cutoff for Fock operator  =     600.0000  Ry
     scf convergence threshold =      1.0E-10
     mixing beta               =       0.7000
     number of iterations used =            8  plain     mixing
     Exchange-correlation= HSE
                           (   1   4  12   4   0   0   0)
     EXX-fraction              =        0.25

     celldm(1)=  27.590096  celldm(2)=   0.000000  celldm(3)=   0.000000
     celldm(4)=   0.000000  celldm(5)=   0.000000  celldm(6)=   0.000000

     crystal axes: (cart. coord. in units of alat)
               a(1) = (   0.997642   0.000087   0.000062 )
               a(2) = (   0.473331   0.878208   0.000062 )
               a(3) = (   0.473331   0.282619   0.831491 )

     reciprocal axes: (cart. coord. in units 2 pi/alat)
               b(1) = (  1.002435 -0.540258 -0.387011 )
               b(2) = ( -0.000075  1.138750 -0.387012 )
               b(3) = ( -0.000075 -0.000045  1.202717 )

     PseudoPot. # 1 for H  read from file:
     /home/mehlhorn/pseudos/UiO-66_pbe-mt_fhi/H.pbe-mt_fhi.UPF
     MD5 check sum: a51ab2e498800631a519c120141ab865
     Pseudo is Norm-conserving, Zval =  1.0
     Generated using FHI98PP, converted with fhi2upf.x v.5.0.2
     Using radial grid of  387 points,  3 beta functions with:
                l(1) =   0
                l(2) =   1
                l(3) =   3

     PseudoPot. # 2 for Zr read from file:
     /home/mehlhorn/pseudos/UiO-66_pbe-mt_fhi/Zr.pbe-mt_fhi.UPF
     MD5 check sum: d7174933297848aa528ce1e54352b3ca
     Pseudo is Norm-conserving, Zval =  4.0
     Generated using FHI98PP, converted with fhi2upf.x v.5.0.2
     Using radial grid of  539 points,  3 beta functions with:
                l(1) =   0
                l(2) =   2
                l(3) =   3

     PseudoPot. # 3 for C  read from file:
     /home/mehlhorn/pseudos/UiO-66_pbe-mt_fhi/C.pbe-mt_fhi.UPF
     MD5 check sum: e90676e360d65248580884789dafaf8e
     Pseudo is Norm-conserving, Zval =  4.0
     Generated using FHI98PP, converted with fhi2upf.x v.5.0.2
     Using radial grid of  461 points,  3 beta functions with:
                l(1) =   0
                l(2) =   1
                l(3) =   3

     PseudoPot. # 4 for O  read from file:
     /home/mehlhorn/pseudos/UiO-66_pbe-mt_fhi/O.pbe-mt_fhi.UPF
     MD5 check sum: 99adf16d734adfb1dfafd143319e1c8a
     Pseudo is Norm-conserving, Zval =  6.0
     Generated using FHI98PP, converted with fhi2upf.x v.5.0.2
     Using radial grid of  473 points,  3 beta functions with:
                l(1) =   0
                l(2) =   1
                l(3) =   3

     atomic species   valence    mass     pseudopotential
     H                 1.00     1.00750     H ( 1.00)
     Zr                4.00    91.22400     Zr( 1.00)
     C                 4.00    12.01060     C ( 1.00)
     O                 6.00    15.99900     O ( 1.00)

     No symmetry found

   Cartesian axes

     site n.     atom                  positions (alat units)
         1        Zr     tau(   1) = (   0.9851018   0.1390969   0.1016593  )
         2        Zr     tau(   2) = (   0.9592011   1.0218154   0.7299553  )
         3        Zr     tau(   3) = (   0.5914383   0.8003192   0.0989921  )
         4        Zr     tau(   4) = (   1.3528646   0.3605937   0.7326217  )
         5        Zr     tau(   5) = (   0.5897545   0.3540447   0.7259131  )
         6        Zr     tau(   6) = (   1.3545479   0.8068685   0.1057015  )
         7        O      tau(   7) = (   1.0813101   0.2536819   0.0705312  )
         8        O      tau(   8) = (   0.8629933   0.9072313   0.7610834  )
         9        O      tau(   9) = (   0.6435861   0.8815048   0.2175001  )
        10        O      tau(  10) = (   1.3007173   0.2794084   0.6141145  )
        11        O      tau(  11) = (   0.7362658   0.3343331   0.7646523  )
        12        O      tau(  12) = (   1.2080376   0.8265801   0.0669623  )
        13        O      tau(  13) = (   1.2129379   0.3069142   0.7631490  )
        14        O      tau(  14) = (   0.7313655   0.8539990   0.0684656  )
        15        O      tau(  15) = (   1.2984098   0.6781686   0.0450558  )
        16        O      tau(  16) = (   0.6458936   0.4827446   0.7865588  )
        17        O      tau(  17) = (   0.8455690   1.0192797   0.6276114  )
        18        O      tau(  18) = (   1.0987343   0.1416336   0.2040032  )
        19        O      tau(  19) = (   1.0496388   1.0173777   0.6102290  )
        20        O      tau(  20) = (   0.8946646   0.1435355   0.2213856  )
        21        O      tau(  21) = (   1.2947158   0.4946601   0.7669425  )
        22        O      tau(  22) = (   0.6495875   0.6662531   0.0646721  )
        23        O      tau(  23) = (   1.3935433   0.7198012   0.2215967  )
        24        O      tau(  24) = (   0.5507601   0.4411120   0.6100179  )
        25        O      tau(  25) = (   0.5500568   0.7116447   0.2154460  )
        26        O      tau(  26) = (   1.3942466   0.4492685   0.6161686  )
        27        O      tau(  27) = (   0.6420736   0.2788428   0.6044852  )
        28        O      tau(  28) = (   1.3022298   0.8820704   0.2271294  )
        29        O      tau(  29) = (   0.8874086   0.2511721   0.0695253  )
        30        O      tau(  30) = (   1.0568948   0.9097412   0.7620893  )
        31        O      tau(  31) = (   0.8779266   0.0527475   0.0396758  )
        32        O      tau(  32) = (   1.0663768   1.1081657   0.7919388  )
        33        O      tau(  33) = (   0.4644754   0.7469889   0.0371773  )
        34        O      tau(  34) = (   1.4798280   0.4139243   0.7944373  )
        35        O      tau(  35) = (   0.4628985   0.2781802   0.6953083  )
        36        O      tau(  36) = (   1.4814049   0.8827330   0.1363062  )
        37        C      tau(  37) = (   1.3136567   0.9631137   0.2571892  )
        38        C      tau(  38) = (   0.6306467   0.1977995   0.5744254  )
        39        C      tau(  39) = (   1.1103247   0.8939305   0.8291503  )
        40        C      tau(  40) = (   0.8339786   0.2669827   0.0024643  )
        41        C      tau(  41) = (   1.4710132   0.4685971   0.5796208  )
        42        C      tau(  42) = (   0.4732901   0.6923161   0.2519937  )
        43        C      tau(  43) = (   0.8010212   0.8977785   0.8217204  )
        44        C      tau(  44) = (   1.1432822   0.2631347   0.0098941  )
        45        C      tau(  45) = (   1.3191843   0.1990592   0.5856550  )
        46        C      tau(  46) = (   0.6251191   0.9618540   0.2459596  )
        47        C      tau(  47) = (   1.1703180   0.8678827   0.0000415  )
        48        C      tau(  48) = (   0.7739854   0.2930305   0.8315731  )
        49        C      tau(  49) = (   1.1899776   0.3542054   0.0042454  )
        50        C      tau(  50) = (   0.7543257   0.8067079   0.8273692  )
        51        C      tau(  51) = (   0.6683575   0.9915969   0.3340054  )
        52        C      tau(  52) = (   1.2759459   0.1693163   0.4976092  )
        53        C      tau(  53) = (   0.8763083   0.2870094   0.8314054  )
        54        C      tau(  54) = (   1.0679951   0.8739039   0.0002092  )
        55        C      tau(  55) = (   0.6844868   0.1687764   0.4922590  )
        56        C      tau(  56) = (   1.2598166   0.9921369   0.3393556  )
        57        C      tau(  57) = (   0.7828110   0.3557143   0.0014204  )
        58        C      tau(  58) = (   1.1614924   0.8051989   0.8301942  )
        59        C      tau(  59) = (   0.4732821   0.6341984   0.3363424  )
        60        C      tau(  60) = (   1.4710213   0.5267149   0.4952722  )
[...]
        94        H      tau(  94) = (   1.3245509   0.5432790   0.4945685  )
        95        H      tau(  95) = (   0.7498631   0.2999314   0.4763503  )
        96        H      tau(  96) = (   1.1944402   0.8609818   0.3552643  )
        97        H      tau(  97) = (   0.7299019   0.8600999   0.3593414  )
        98        H      tau(  98) = (   1.2144015   0.3008133   0.4722732  )
        99        H      tau(  99) = (   0.8893757   0.3498776   0.6987484  )
       100        H      tau( 100) = (   1.0549277   0.8110356   0.1328662  )
       101        H      tau( 101) = (   1.1034130   0.4156953   0.1064558  )
       102        H      tau( 102) = (   0.8408904   0.7452179   0.7251588  )
       103        H      tau( 103) = (   0.8040115   0.9099254   0.5062599  )
       104        H      tau( 104) = (   1.1402919   0.2509879   0.3253547  )
       105        H      tau( 105) = (   1.0611027   0.3415250   0.6986541  )
       106        H      tau( 106) = (   0.8832007   0.8193882   0.1329604  )
       107        H      tau( 107) = (   1.1824302   0.5681885   0.0985782  )
       108        H      tau( 108) = (   0.7618732   0.5927247   0.7330364  )

     number of k points=     1
                       cart. coord. in units 2pi/alat
        k(    1) = (   0.0000000   0.0000000   0.0000000), wk =   2.0000000

     Initial potential from superposition of free atoms

     starting charge     419.9851, renormalised to     420.0000

     negative rho (up, down):  1.470E-02 0.000E+00
     Starting wfcs are 1728 randomized atomic wfcs

     Self-consistent Calculation

     iteration #  1     ecut=   150.00 Ry     beta= 0.70
     Davidson diagonalization with overlap
     ethr =  1.00E-02,  avg # of iterations =  9.0

     negative rho (up, down):  3.999E-03 0.000E+00

     total energy              =   -1568.04166442 Ry
     estimated scf accuracy    <      16.89253039 Ry

[...]

     negative rho (up, down):  1.253E-07 0.000E+00

[...]

     iteration #  7     ecut=   150.00 Ry     beta= 0.70
     Davidson diagonalization with overlap
     c_bands:  1 eigenvalues not converged
     ethr =  1.99E-06,  avg # of iterations = 20.0

[...]

     End of self-consistent calculation

          k = 0.0000 0.0000 0.0000 (474567 PWs)   bands (ev):

   -23.1723 -23.1465 -23.1464 -23.1117 -23.1117 -23.0913 -22.9502 -22.9486
   -22.8611 -22.8610 -22.8572 -22.8572 -20.8936 -20.8689 -20.8688 -20.8190
   -20.8190 -20.7853 -20.6793 -20.6793 -20.6788 -20.6787 -20.5513 -20.5484
   -18.6669 -18.3556 -18.3555 -17.9362 -17.9361 -17.7839 -17.7108 -17.7101
   -17.7100 -17.5332 -17.5277 -17.5277 -15.3721 -15.3720 -15.3596 -15.1874
   -15.1624 -15.1624 -14.8064 -14.8038 -14.8038 -14.6341 -14.6340 -14.6315
   -12.6498 -12.5968 -12.5967 -12.4614 -12.3772 -12.3771 -11.3049 -11.3048
   -11.2910 -11.1307 -11.1307 -11.1106 -10.6216 -10.6216 -10.5553 -10.3808
   -10.2240 -10.2240  -9.9924  -9.9176  -9.9176  -9.8248  -9.7380  -9.7379
    -9.1822  -8.9857  -8.9418  -8.9417  -8.8035  -8.8034  -8.8022  -8.6347
    -8.6347  -8.5430  -8.5430  -8.2914  -8.2913  -8.2168  -8.1378  -8.1378
    -8.0760  -8.0656  -8.0655  -8.0229  -7.9081  -7.7565  -7.7565  -7.6344
    -7.4935  -7.2491  -7.2490  -7.2420  -7.1907  -7.1907  -7.1729  -7.1019
    -7.1019  -7.0678  -7.0643  -7.0643  -7.0332  -7.0332  -7.0217  -6.9402
    -6.9125  -6.9124  -6.8575  -6.8238  -6.7979  -6.7979  -6.6935  -6.6935
    -6.5954  -6.5689  -6.5689  -6.4137  -6.4137  -6.3963  -5.9881  -5.9766
    -5.9765  -5.8558  -5.6245  -5.6244  -5.5769  -5.3499  -5.2992  -5.2991
    -5.2477  -5.2477  -5.2144  -5.2144  -5.1366  -5.1244  -5.0977  -5.0977
    -5.0441  -4.5691  -4.5690  -4.5432  -4.5142  -4.5142  -4.5020  -4.4018
    -4.4018  -4.3758  -4.3758  -4.3581  -4.2610  -4.2609  -4.1370  -4.0156
    -4.0156  -3.9981  -3.8864  -3.6898  -3.6898  -3.6590  -3.6456  -3.6175
    -3.5856  -3.5856  -3.5491  -3.5491  -3.4401  -3.3925  -3.3925  -3.3304
    -3.3304  -3.2714  -3.2714  -3.1918  -3.1046  -3.0641  -3.0485  -3.0485
    -2.9760  -2.9760  -2.9598  -2.9598  -2.8998  -2.8997  -2.8997  -2.8437
    -2.7711  -2.7711  -2.7537  -2.7494  -2.7382  -2.7067  -2.7067  -2.6672
    -2.6672  -2.6467  -2.6005  -2.6004  -2.5377  -2.5376  -2.5228  -1.8079
    -1.8078  -1.6764   0.5492   1.0007   1.0008   1.0825   1.2472   1.2472
     1.5856   2.2650   2.3322   2.3322   2.3922   2.3923   2.4741   2.5748
     2.5748   2.5887   2.5888   2.6581   2.7806   2.7806   2.7941   2.9944
     3.0227   3.0817   3.0817   3.0939   3.4368   3.4369   3.5491   3.6368
     3.6824   3.6825   3.7013   3.7833   3.7834   3.7964   3.8440   4.0174
     4.0175   4.0875   4.0875   4.0918   4.2018   4.2492   4.2492   4.3402
     4.3403   4.5612   4.5613   4.5719   4.5772   4.6478   4.6479   4.7694
     4.8522   4.8522   4.9573   4.9573   5.0562   5.0961   5.0961   5.1261
     5.2088   5.4522   5.4522   5.6415   5.6568   5.6569   5.6682   5.6682
     5.7081   5.8132   5.8446   5.8446   5.8455   5.9628   5.9628   5.9699
     5.9916   5.9916   6.0256   6.0603   6.0603   6.1175   6.1176   6.1626
     6.2749   6.3320   6.3820   6.3820   6.3971   6.6782   6.6782   6.9606
     6.9606   6.9959   7.1016   7.1016   7.1198   7.1799   7.1932   7.1933
     7.2770   7.2770   7.2773   7.2804   7.3645   7.3808   7.3808   7.3849
     7.4045   7.4046   7.4442   7.6304   7.6304   7.6417   7.6417   7.6623
     7.7900   7.7900   7.8867   8.2030   8.2484   8.2484   8.2622   8.3875
     8.4980   8.4981   8.5213   8.5638   8.6127   8.6127   8.6274   8.6275
     8.7937   8.8017   8.8099   8.8099   8.8471   8.8471   9.0382   9.0382
     9.0573   9.1371   9.1371   9.1383   9.1430   9.1496   9.1496   9.2060
     9.2305   9.2305   9.2516   9.2743   9.2795   9.2795   9.3207   9.3600
     9.3600   9.3614   9.3614   9.3772   9.5368   9.5368   9.5451   9.5774
     9.5861   9.5861   9.6935   9.6935   9.7250   9.7250   9.7641   9.7641
     9.7992   9.9134   9.9190   9.9973   9.9997  10.1037  10.1037  10.2143
    10.2143  10.2184  10.2184  10.2304  10.3164  10.3712  10.3712  10.4136
    10.4759  10.5259  10.5259  10.5621  10.5622  10.6346  10.6478  10.6484
    10.6484  10.6849  10.7705  10.7705  10.8629  10.8629  10.8763  10.9732
    11.0359  11.0759  11.0759  11.1923

     highest occupied, lowest unoccupied level (ev):    -1.6764    0.5492

!    total energy              =   -1573.90446145 Ry
     estimated scf accuracy    <          2.5E-11 Ry

     convergence has been achieved in  18 iterations

     Using ACE for calculation of exact exchange

     EXX: now go back to refine exchange calculation

[...]

     iteration #  1     ecut=   150.00 Ry     beta= 0.70
     Davidson diagonalization with overlap
     c_bands:  2 eigenvalues not converged
     ethr =  1.00E-13,  avg # of iterations = 20.0

[...]

     Using ACE for calculation of exact exchange
     ACE projected onto   420 (nbndproj) and applied to   420 (nbnd) bands

     total energy              =   -1572.83354005 Ry
     Harris-Foulkes estimate   =   -1572.83354005 Ry
     est. exchange err (dexx)  =       0.01102853 Ry
     - averaged Fock potential =     161.29734896 Ry
     + Fock energy (ACE)       =     -80.80689316 Ry

[...]

     total energy              =   -1572.83478672 Ry
     estimated scf accuracy    <          2.1E-10 Ry

[...]

     total energy              =   -1572.83478672 Ry
     Harris-Foulkes estimate   =   -1572.83478672 Ry
     est. exchange err (dexx)  =          1.7E-10 Ry
     - averaged Fock potential =     161.68091017 Ry
     + Fock energy (ACE)       =     -80.84045859 Ry

     EXX: now go back to refine exchange calculation

     Self-consistent Calculation

     iteration #  1     ecut=   150.00 Ry     beta= 0.70
     Davidson diagonalization with overlap
     ethr =  1.00E-13,  avg # of iterations =  2.0

     End of self-consistent calculation

          k = 0.0000 0.0000 0.0000 (474567 PWs)   bands (ev):

   -26.1306 -26.1004 -26.1003 -26.0627 -26.0626 -26.0384 -25.8931 -25.8915
   -25.7944 -25.7944 -25.7896 -25.7895 -23.7226 -23.6930 -23.6929 -23.6389
   -23.6388 -23.5990 -23.4885 -23.4885 -23.4883 -23.4882 -23.3459 -23.3417
   -21.3818 -21.0460 -21.0460 -20.5939 -20.5938 -20.4348 -20.1702 -20.1686
   -20.1685 -19.9859 -19.9799 -19.9799 -17.6341 -17.6341 -17.6194 -17.4428
   -17.4142 -17.4142 -17.0191 -17.0164 -17.0163 -16.8406 -16.8405 -16.8379
   -14.6350 -14.5693 -14.5692 -14.4382 -14.3385 -14.3385 -13.1058 -13.1058
   -13.0904 -12.9243 -12.9243 -12.9021 -12.4831 -12.4830 -12.4177 -12.2083
   -12.0470 -12.0470 -11.6794 -11.5640 -11.5639 -11.4961 -11.3736 -11.3735
   -10.8032 -10.5967 -10.5759 -10.5759 -10.4195 -10.4195 -10.3899 -10.2068
   -10.2068 -10.0958 -10.0958  -9.8505  -9.8504  -9.7482  -9.7041  -9.7041
    -9.6204  -9.6203  -9.6019  -9.5803  -9.4564  -9.3059  -9.3058  -9.1312
    -8.8583  -8.5992  -8.5992  -8.5894  -8.5279  -8.5279  -8.5267  -8.4846
    -8.4846  -8.4517  -8.4045  -8.4045  -8.3631  -8.3631  -8.3438  -8.3201
    -8.2861  -8.2861  -8.1606  -8.1527  -8.1165  -8.1165  -7.9981  -7.9981
    -7.8780  -7.8513  -7.8513  -7.6896  -7.6896  -7.6716  -7.3421  -7.3420
    -7.3396  -7.1788  -6.9378  -6.9378  -6.8321  -6.5266  -6.5266  -6.4235
    -6.4234  -6.4015  -6.3578  -6.3326  -6.3326  -6.2304  -6.1835  -6.1835
    -6.1791  -5.7427  -5.6867  -5.6866  -5.6598  -5.6308  -5.6307  -5.5730
    -5.5729  -5.4868  -5.4867  -5.4672  -5.3676  -5.3676  -5.2578  -5.2232
    -5.1821  -5.1821  -4.9911  -4.8574  -4.8080  -4.7876  -4.7876  -4.7718
    -4.7339  -4.7339  -4.7240  -4.7239  -4.6005  -4.6004  -4.5285  -4.4892
    -4.4404  -4.4404  -4.4217  -4.4217  -4.3688  -4.3292  -4.3292  -4.2356
    -4.2355  -4.1552  -4.1552  -4.1245  -4.0790  -4.0550  -4.0028  -4.0028
    -3.8907  -3.7553  -3.7553  -3.4552  -3.4552  -3.3780  -3.3620  -3.3255
    -3.3255  -3.2887  -3.2449  -3.2448  -3.1644  -3.1643  -3.1425  -2.7901
    -2.7901  -2.6884   0.9264   1.4076   1.4077   1.4905   1.6609   1.6609
     2.0645   2.7923   2.9317   2.9318   2.9603   2.9603   3.0270   3.0301
     3.1254   3.1254   3.1599   3.1600   3.2332   3.3434   3.3434   3.5738
     3.7539   3.8084   3.8135   3.8135   3.9578   3.9819   4.0171   4.0172
     4.0487   4.0488   4.1047   4.1736   4.3022   4.3022   4.3731   4.4286
     4.4315   4.4315   4.6425   4.6425   4.6458   4.7306   4.7306   4.7315
     4.7315   4.9125   5.1099   5.1100   5.3050   5.3575   5.3575   5.3772
     5.4267   5.4268   5.5312   5.5924   5.6109   5.6109   5.8013   5.8013
     5.8811   5.9950   5.9950   6.0028   6.0028   6.1241   6.1588   6.1729
     6.1730   6.2049   6.2946   6.2974   6.2974   6.3365   6.3365   6.3653
     6.4501   6.4501   6.5220   6.6606   6.6743   6.7315   6.7315   6.7646
     6.8180   6.8180   6.9070   6.9071   7.0769   7.1353   7.1354   7.3514
     7.3515   7.4071   7.4889   7.5195   7.5609   7.5609   7.6422   7.6422
     7.6796   7.7769   7.8108   7.8108   7.8217   7.9635   7.9838   7.9838
     8.0435   8.0435   8.1578   8.1578   8.2375   8.2812   8.2812   8.3934
     8.4459   8.4688   8.4689   8.6312   8.7438   8.7438   8.8228   8.8308
     8.9377   8.9946   8.9946   9.0574   9.0574   9.0609   9.0609   9.0949
     9.2144   9.2144   9.2745   9.3562   9.3562   9.3952   9.4928   9.5184
     9.5935   9.5935   9.6151   9.6151   9.6567   9.7067   9.7067   9.7237
     9.7237   9.7617   9.7825   9.8116   9.8116   9.9079   9.9392   9.9392
     9.9410   9.9411   9.9450  10.0636  10.0636  10.0951  10.1679  10.1679
    10.1855  10.2176  10.2176  10.2311  10.2311  10.2523  10.2638  10.3213
    10.3652  10.3905  10.3905  10.4302  10.5001  10.5780  10.5780  10.5931
    10.6824  10.6897  10.6897  10.6996  10.6997  10.8867  10.9931  10.9931
    11.0423  11.0423  11.1611  11.1671  11.1729  11.1729  11.2451  11.2452
    11.2932  11.3881  11.4419  11.4793  11.4793  11.5399  11.5399  11.6854
    11.7469  11.7469  11.7776  11.8313

     highest occupied, lowest unoccupied level (ev):    -2.6884    0.9264

!    total energy              =   -1572.83478672 Ry
     estimated scf accuracy    <          4.8E-11 Ry

     convergence has been achieved in   1 iterations

     Using ACE for calculation of exact exchange
     ACE projected onto   420 (nbndproj) and applied to   420 (nbnd) bands

!!   total energy              =   -1572.83478672 Ry
     Harris-Foulkes estimate   =   -1572.83478672 Ry
     est. exchange err (dexx)  =          1.0E-11 Ry
     - averaged Fock potential =     161.68092332 Ry
     + Fock energy (ACE)       =     -80.84046474 Ry

     EXX self-consistency reached

     Writing all to output data dir ./pwscf.save/ :
     XML data file, charge density, pseudopotentials, collected wavefunctions

     General routines

     Parallel routines

     EXX routines

   This run was terminated on:  21:17:30  16Aug2025

   JOB DONE.