     Program PWSCF v.7.3.1 starts on  3Jun2025 at 11:17:28

     Waiting for input...
     Reading input from standard input

     Current dimensions of program PWSCF are:
     Max number of different atomic species (ntypx) = 10
     Max number of k-points (npk) =  40000
     Max angular momentum in pseudopotentials (lmaxx) =  4
     file H.pbe-kjpaw_psl.1.0.0.UPF: wavefunction(s)  1S renormalized
     file Zr.pbe-spn-kjpaw_psl.1.0.0.UPF: wavefunction(s)  4S 4P renormalized
     file C.pbe-n-kjpaw_psl.1.0.0.UPF: wavefunction(s)  2S 2P renormalized
     file O.pbe-n-kjpaw_psl.1.0.0.UPF: wavefunction(s)  2S 2P renormalized
     file N.pbe-n-kjpaw_psl.1.0.0.UPF: wavefunction(s)  2S renormalized

     IMPORTANT: XC functional enforced from input :
     Exchange-correlation= PBE
                           (   1   4   3   4   0   0   0)
     Any further DFT definition will be discarded
     Please, verify this is what you really want

     gamma-point specific algorithms are used

     R & G space division:  proc/nbgrp/npool/nimage =     256
     wavefunctions fft division:  task group distribution
                                  #TG    x Z-proc =       8     32
     Subspace diagonalization in iterative solution of the eigenvalue problem:
     one sub-group per band group will be used

     Using Pencil Decomposition

     Title:
     UiO-66-NH2-dehydrox GeomOpt

     bravais-lattice index     =            0
     lattice parameter (alat)  =      27.5206  a.u.
     unit-cell volume          =   15295.2665 (a.u.)^3
     number of atoms/cell      =          120
     number of atomic types    =            5
     number of electrons       =       504.00
     number of Kohn-Sham states=          252
     kinetic-energy cutoff     =      80.0000  Ry
     charge density cutoff     =     480.0000  Ry
     scf convergence threshold =      1.0E-08
     mixing beta               =       0.7000
     number of iterations used =            8  plain     mixing
     energy convergence thresh.=      3.6E-06
     force convergence thresh. =      1.0E-05
     press convergence thresh. =      5.0E-01
     Exchange-correlation= PBE
                           (   1   4   3   4   0   0   0)
     nstep                     =           50

     celldm(1)=  27.520592  celldm(2)=   0.000000  celldm(3)=   0.000000
     celldm(4)=   0.000000  celldm(5)=   0.000000  celldm(6)=   0.000000

     crystal axes: (cart. coord. in units of alat)
               a(1) = (   1.000000   0.000000   0.000000 )
               a(2) = (   0.474326   0.880349   0.000000 )
               a(3) = (   0.474326   0.283229   0.833544 )

     reciprocal axes: (cart. coord. in units 2 pi/alat)
               b(1) = (  1.000000 -0.538793 -0.385971 )
               b(2) = (  0.000000  1.135913 -0.385971 )
               b(3) = (  0.000000  0.000000  1.199696 )

     PseudoPot. # 1 for H  read from file:
     /home/mehlhorn/pseudos/UiO-66_pbe-spn-kjpaw/H.pbe-kjpaw_psl.1.0.0.UPF
     MD5 check sum: d81a744832360e4a8af0b0b5b123bc2a
     Pseudo is Projector augmented-wave, Zval =  1.0
     Generated using &quot;atomic&quot; code by A. Dal Corso  v.6.3MaX
     Shape of augmentation charge: PSQ
     Using radial grid of  929 points,  2 beta functions with:
                l(1) =   0
                l(2) =   0
     Q(r) pseudized with 0 coefficients

     PseudoPot. # 2 for Zr read from file:
     /home/mehlhorn/pseudos/UiO-66_pbe-spn-kjpaw/Zr.pbe-spn-kjpaw_psl.1.0.0.UPF
     MD5 check sum: 02112c41713a0468aff2bb39ef194e36
     Pseudo is Projector augmented-wave + core cor, Zval = 12.0
     Generated using &quot;atomic&quot; code by A. Dal Corso  v.6.2.2
     Shape of augmentation charge: PSQ
     Using radial grid of 1225 points,  6 beta functions with:
                l(1) =   0
                l(2) =   0
                l(3) =   1
                l(4) =   1
                l(5) =   2
                l(6) =   2
     Q(r) pseudized with 0 coefficients

     PseudoPot. # 3 for C  read from file:
     /home/mehlhorn/pseudos/UiO-66_pbe-spn-kjpaw/C.pbe-n-kjpaw_psl.1.0.0.UPF
     MD5 check sum: 5f16ad9a65e90284d1d834d4ab3b0f7d
     Pseudo is Projector augmented-wave + core cor, Zval =  4.0
     Generated using &quot;atomic&quot; code by A. Dal Corso  v.6.3
     Shape of augmentation charge: PSQ
     Using radial grid of 1073 points,  4 beta functions with:
                l(1) =   0
                l(2) =   0
                l(3) =   1
                l(4) =   1
     Q(r) pseudized with 0 coefficients

     PseudoPot. # 4 for O  read from file:
     /home/mehlhorn/pseudos/UiO-66_pbe-spn-kjpaw/O.pbe-n-kjpaw_psl.1.0.0.UPF
     MD5 check sum: e99d9cef9b487d1ca56f5b95ecd0fd7a
     Pseudo is Projector augmented-wave + core cor, Zval =  6.0
     Generated using &quot;atomic&quot; code by A. Dal Corso  v.6.3
     Shape of augmentation charge: PSQ
     Using radial grid of 1095 points,  4 beta functions with:
                l(1) =   0
                l(2) =   0
                l(3) =   1
                l(4) =   1
     Q(r) pseudized with 0 coefficients

     PseudoPot. # 5 for N  read from file:
     /home/mehlhorn/pseudos/UiO-66_pbe-spn-kjpaw/N.pbe-n-kjpaw_psl.1.0.0.UPF
     MD5 check sum: 14c48229446f9f2d411169a3abcbc3fa
     Pseudo is Projector augmented-wave + core cor, Zval =  5.0
     Generated using &quot;atomic&quot; code by A. Dal Corso  v.6.3
     Shape of augmentation charge: PSQ
     Using radial grid of 1085 points,  4 beta functions with:
                l(1) =   0
                l(2) =   0
                l(3) =   1
                l(4) =   1
     Q(r) pseudized with 0 coefficients

     atomic species   valence    mass     pseudopotential
     H                 1.00     1.00750     H ( 1.00)
     Zr               12.00    91.22400     Zr( 1.00)
     C                 4.00    12.01060     C ( 1.00)
     O                 6.00    15.99900     O ( 1.00)
     N                 5.00    14.00650     N ( 1.00)

     No symmetry found

   Cartesian axes

     site n.     atom                  positions (alat units)
         1        Zr     tau(   1) = (   0.9874181   0.1392538   0.1019900  )
         2        Zr     tau(   2) = (   0.5928119   0.8022180   0.0990376  )
         3        Zr     tau(   3) = (   0.5909499   0.3549830   0.7277042  )
         4        Zr     tau(   4) = (   1.3577007   0.8085958   0.1058401  )
         5        Zr     tau(   5) = (   0.9612331   1.0243241   0.7315543  )
         6        Zr     tau(   6) = (   1.3558393   0.3613605   0.7345059  )
         7        O      tau(   7) = (   1.0836615   0.2543800   0.0708329  )
         8        O      tau(   8) = (   0.6450989   0.8833703   0.2180669  )
         9        O      tau(   9) = (   0.7379519   0.3351729   0.7662473  )
        10        O      tau(  10) = (   1.3035537   0.2802097   0.6154783  )
        11        O      tau(  11) = (   0.8649916   0.9091997   0.7627114  )
        12        O      tau(  12) = (   1.2107012   0.8284061   0.0672979  )
        13        O      tau(  13) = (   1.3013736   0.6798381   0.0446063  )
        14        O      tau(  14) = (   1.2157702   0.3070774   0.7650811  )
        15        O      tau(  15) = (   0.7328815   0.8565014   0.0684632  )
        16        O      tau(  16) = (   0.8470066   1.0218857   0.6293426  )
        17        O      tau(  17) = (   0.8799826   0.0527165   0.0398718  )
        18        O      tau(  18) = (   0.4655642   0.7487408   0.0370861  )
        19        O      tau(  19) = (   0.6472781   0.4837407   0.7889380  )
        20        O      tau(  20) = (   1.1016451   0.1416930   0.2042017  )
        21        O      tau(  21) = (   0.6511863   0.6679768   0.0643605  )
        22        O      tau(  22) = (   0.5517124   0.4424321   0.6117565  )
        23        O      tau(  23) = (   0.8893487   0.2516787   0.0700236  )
        24        O      tau(  24) = (   1.3969392   0.7211467   0.2217878  )
        25        O      tau(  25) = (   1.0517243   1.0201396   0.6114514  )
        26        O      tau(  26) = (   1.2974654   0.4956020   0.7691838  )
        27        O      tau(  27) = (   0.4638074   0.2789442   0.6970014  )
        28        O      tau(  28) = (   1.3052454   0.8837951   0.2277918  )
        29        O      tau(  29) = (   0.5514916   0.7130828   0.2157696  )
        30        O      tau(  30) = (   1.4848442   0.8846345   0.1365429  )
        31        O      tau(  31) = (   1.4830874   0.4148380   0.7964582  )
        32        O      tau(  32) = (   1.0686691   1.1108623   0.7936725  )
        33        O      tau(  33) = (   1.3971600   0.4504960   0.6177747  )
        34        O      tau(  34) = (   0.6434063   0.2797837   0.6057525  )
        35        O      tau(  35) = (   1.0593029   0.9119001   0.7635207  )
        36        O      tau(  36) = (   0.8969274   0.1434392   0.2220929  )
        37        N      tau(  37) = (   1.1058469   0.4168572   0.1065736  )
        38        N      tau(  38) = (   0.7314318   0.8620554   0.3604071  )
        39        N      tau(  39) = (   0.8915117   0.3505027   0.7002714  )
        40        N      tau(  40) = (   1.3274638   0.6401489   0.3520608  )
        41        N      tau(  41) = (   1.1932050   0.6116318   0.7057378  )
        42        N      tau(  42) = (   1.1044176   0.9128308   0.4928481  )
        43        C      tau(  43) = (   0.8027583   0.8998665   0.8234059  )
        44        C      tau(  44) = (   1.3219829   0.1995885   0.5871144  )
        45        C      tau(  45) = (   0.1523429   0.0836409   0.2464299  )
        46        C      tau(  46) = (   1.1729659   0.8696717   0.0000884  )
        47        C      tau(  47) = (   0.1927358   0.3549793   0.0043411  )
        48        C      tau(  48) = (   0.4039254   0.0045282  -0.0001667  )
        49        C      tau(  49) = (   0.3013599   0.0106777  -0.0000884  )
        50        C      tau(  50) = (   0.1458934   0.2637123   0.0101384  )
        51        C      tau(  51) = (   1.1634472   0.4278485   0.0601536  )
        52        C      tau(  52) = (   0.7231730   0.9319341   0.3857485  )
        53        C      tau(  53) = (   0.7852045   0.7357303   0.7733907  )
        54        C      tau(  54) = (   1.2787472   0.1696747   0.4988346  )
        55        C      tau(  55) = (   0.7559158   0.8085994   0.8292032  )
        56        C      tau(  56) = (   1.0704004   0.8758212   0.0001667  )
        57        C      tau(  57) = (   0.1955787   0.1135547   0.3347097  )
        58        C      tau(  58) = (   1.1842639   0.2038405   0.3662894  )
        59        C      tau(  59) = (   1.1128668   0.8960757   0.8307561  )
        60        C      tau(  60) = (   1.3167211   0.9650414   0.2579153  )
[...]
       106        H      tau( 106) = (   0.7525814   0.3003361   0.4779493  )
       107        H      tau( 107) = (   1.1960702   0.8632427   0.3555950  )
       108        H      tau( 108) = (   1.0743463   0.3547294   0.1089192  )
       109        H      tau( 109) = (   1.0836710   0.4687427   0.1474873  )
       110        H      tau( 110) = (   1.3272822   0.5437190   0.4948853  )
[...]
     Diagonalizing with lowered threshold

     Davidson diagonalization with overlap
     ethr =  9.92E-08,  avg # of iterations =  2.0

[...]

     new trust radius        =       0.0099763043 bohr
     new conv_thr            =       0.0000000015 Ry

     new unit-cell volume =  15374.03308 a.u.^3 (  2278.19666 Ang^3 )
     density =      1.25228 g/cm^3

[...]

     Self-consistent Calculation

[...]

     Threshold (ethr) on eigenvalues was too large:
     Diagonalizing with lowered threshold

     Davidson diagonalization with overlap
     ethr =  2.03E-08,  avg # of iterations =  7.0

[...]

     total energy              =   -4185.71953715 Ry
     estimated scf accuracy    <          2.8E-09 Ry

     iteration # 11     ecut=    80.00 Ry     beta= 0.70
     Davidson diagonalization with overlap
     ethr =  5.59E-13,  avg # of iterations =  5.0

[...]

     End of self-consistent calculation

          k = 0.0000 0.0000 0.0000 ( 92351 PWs)   bands (ev):

   -49.2923 -49.2768 -49.2767 -49.2603 -49.2569 -49.2566 -27.7972 -27.6907
   -27.6907 -27.5874 -27.5873 -27.5820 -27.4479 -27.4057 -27.4055 -27.3997
   -27.3996 -27.3698 -27.2979 -27.2978 -27.2610 -27.2469 -27.2467 -27.2466
   -22.4748 -22.4362 -22.4360 -22.4094 -22.4091 -22.3920 -22.2309 -22.1806
   -22.1664 -22.1661 -22.1198 -22.1197 -20.1860 -20.1696 -20.1695 -20.1327
   -20.1325 -20.0974 -19.9769 -19.9767 -19.9236 -19.9236 -19.8751 -19.8300
   -18.7147 -18.7115 -18.7113 -18.4876 -18.4872 -18.4869 -17.6776 -17.4514
   -17.4514 -17.2579 -17.2579 -17.2234 -16.5611 -16.5609 -16.5605 -16.3638
   -16.3638 -16.3637 -14.6105 -14.6103 -14.6020 -14.4048 -14.3848 -14.3848
   -13.6541 -13.6537 -13.6500 -13.4585 -13.4570 -13.4567 -11.9905 -11.9634
   -11.9631 -11.7791 -11.7267 -11.7265 -10.6554 -10.6531 -10.6528 -10.4427
   -10.4426 -10.4330  -9.9348  -9.9346  -9.8275  -9.7484  -9.6238  -9.5643
    -9.5641  -9.5451  -9.5450  -9.4278  -9.3347  -9.3345  -8.6681  -8.6215
    -8.6212  -8.4470  -8.3945  -8.3944  -8.2622  -8.0996  -8.0995  -8.0248
    -7.9843  -7.9841  -7.8310  -7.7637  -7.7637  -7.6571  -7.6569  -7.6013
    -7.5394  -7.5392  -7.4671  -7.4387  -7.4386  -7.3342  -7.3325  -7.3324
    -7.2333  -7.1604  -7.1602  -6.9671  -6.9671  -6.9451  -6.9160  -6.7807
    -6.7596  -6.7595  -6.7472  -6.5489  -6.5488  -6.4497  -6.4419  -6.4418
    -6.3636  -6.2025  -6.2025  -6.1493  -6.0137  -6.0134  -6.0032  -5.9733
    -5.9733  -5.8842  -5.8625  -5.8623  -5.7948  -5.7905  -5.7903  -5.6700
    -5.6697  -5.6697  -5.4305  -5.3519  -5.3518  -5.1718  -5.0079  -5.0023
    -5.0021  -4.9374  -4.9374  -4.8095  -4.7712  -4.7590  -4.7589  -4.6064
    -4.6064  -4.5898  -4.5603  -4.5602  -4.4790  -4.0703  -4.0699  -4.0514
    -3.9506  -3.9369  -3.9368  -3.8829  -3.8828  -3.8257  -3.8255  -3.7783
    -3.7050  -3.7050  -3.5245  -3.3428  -3.3427  -3.3203  -3.2661  -3.2518
    -3.2517  -3.2028  -3.1513  -3.0985  -3.0984  -3.0578  -3.0105  -3.0105
    -2.9080  -2.9032  -2.9032  -2.8020  -2.7793  -2.7792  -2.7482  -2.6794
    -2.6793  -2.6265  -2.6265  -2.5788  -2.5788  -2.5022  -2.3651  -2.3651
    -2.3645  -2.3213  -2.2709  -2.2709  -2.2205  -2.2204  -2.1782  -2.1726
    -2.1725  -2.1139  -2.0657  -2.0657  -2.0461  -1.9724  -1.9723  -1.9346
    -1.8302  -1.7714  -1.7713  -1.3196  -1.3196  -1.1897  -0.6689  -0.6687
    -0.6549  -0.4988  -0.4728  -0.4726

     highest occupied level (ev):    -0.4726

!    total energy              =   -4185.71953715 Ry
     total all-electron energy =    -52053.929407 Ry
     estimated scf accuracy    <          8.8E-10 Ry

     The total energy is the sum of the following terms:
     one-electron contribution =   -6002.46454078 Ry
     hartree contribution      =    3149.75891401 Ry
     xc contribution           =    -609.67364738 Ry
     ewald contribution        =    1168.15851631 Ry
     one-center paw contrib.   =   -1891.49877932 Ry

     convergence has been achieved in  11 iterations

[...]

     Forces acting on atoms (cartesian axes, Ry/au):

     atom    1 type  2   force =     0.00091836    0.00019806   -0.00020920
     atom    2 type  2   force =     0.00029431    0.00088085    0.00023486
     atom    3 type  2   force =     0.00059176    0.00001568    0.00075105
     atom    4 type  2   force =     0.00050919   -0.00021604    0.00087736
     atom    5 type  2   force =     0.00091500    0.00005378   -0.00051840
     atom    6 type  2   force =     0.00000847    0.00101799    0.00019478
     atom    7 type  4   force =    -0.00054364    0.00037902    0.00004168
     atom    8 type  4   force =    -0.00009949   -0.00062117    0.00032057
     atom    9 type  4   force =     0.00007338   -0.00017177   -0.00063792
     atom   10 type  4   force =    -0.00035121    0.00029345   -0.00006709
     atom   11 type  4   force =     0.00011039   -0.00018981   -0.00042130
     atom   12 type  4   force =    -0.00005235   -0.00041957    0.00045440
     atom   13 type  4   force =     0.00031244    0.00040377    0.00054374
     atom   14 type  4   force =     0.00043178    0.00047364    0.00004601
     atom   15 type  4   force =    -0.00000859   -0.00033670   -0.00042900
     atom   16 type  4   force =     0.00070173   -0.00000617    0.00019956
     atom   17 type  4   force =    -0.00015212   -0.00112798    0.00023842
     atom   18 type  4   force =    -0.00021551   -0.00005839   -0.00110487
     atom   19 type  4   force =    -0.00045785    0.00024239   -0.00018244
     atom   20 type  4   force =    -0.00027933   -0.00039290    0.00029351
     atom   21 type  4   force =    -0.00019739    0.00032961    0.00013994
     atom   22 type  4   force =     0.00010615   -0.00027982    0.00025786
     atom   23 type  4   force =    -0.00023086    0.00005105    0.00012839
     atom   24 type  4   force =    -0.00003111   -0.00015010   -0.00010236
     atom   25 type  4   force =    -0.00011907    0.00007144   -0.00012325
     atom   26 type  4   force =    -0.00014495   -0.00004883    0.00010922
     atom   27 type  4   force =    -0.00103960    0.00032755    0.00030230
     atom   28 type  4   force =    -0.00053872    0.00009105    0.00014092
     atom   29 type  4   force =    -0.00001482   -0.00027468    0.00001676
     atom   30 type  4   force =     0.00002613    0.00063701   -0.00014802
     atom   31 type  4   force =     0.00059436   -0.00023348   -0.00021964
     atom   32 type  4   force =     0.00007227   -0.00000913    0.00067151
     atom   33 type  4   force =    -0.00001786    0.00000626   -0.00061203
     atom   34 type  4   force =    -0.00006378    0.00005434   -0.00025682
     atom   35 type  4   force =    -0.00004560   -0.00056337    0.00013196
     atom   36 type  4   force =     0.00012974   -0.00005096   -0.00031594
     atom   37 type  5   force =     0.00000339    0.00056797   -0.00028297
     atom   38 type  5   force =     0.00007936   -0.00015265    0.00085874
     atom   39 type  5   force =     0.00058106   -0.00033727   -0.00023810
     atom   40 type  5   force =     0.00000130   -0.00018806   -0.00005066
     atom   41 type  5   force =    -0.00015095   -0.00003104    0.00011250
     atom   42 type  5   force =     0.00006599   -0.00023397   -0.00053846
     atom   43 type  3   force =     0.00020979   -0.00000097   -0.00014634
     atom   44 type  3   force =     0.00000797    0.00022042    0.00007694
     atom   45 type  3   force =    -0.00041775    0.00037603    0.00010755
     atom   46 type  3   force =     0.00010251    0.00009228   -0.00009326
     atom   47 type  3   force =     0.00040112   -0.00052398    0.00008516
     atom   48 type  3   force =    -0.00030469    0.00033145    0.00043040
     atom   49 type  3   force =    -0.00002196   -0.00041511    0.00021963
     atom   50 type  3   force =     0.00004029   -0.00006273   -0.00045037
     atom   51 type  3   force =    -0.00036909   -0.00019432    0.00009213
     atom   52 type  3   force =    -0.00023829   -0.00009150   -0.00022014
     atom   53 type  3   force =    -0.00019924   -0.00000054    0.00004580
     atom   54 type  3   force =    -0.00003577    0.00001687    0.00018271
     atom   55 type  3   force =    -0.00024138    0.00023106    0.00014942
     atom   56 type  3   force =     0.00013128   -0.00009155   -0.00009155
     atom   57 type  3   force =     0.00017049    0.00020563   -0.00053731
     atom   58 type  3   force =     0.00010611   -0.00023575   -0.00019589
     atom   59 type  3   force =    -0.00003749    0.00010327    0.00018418
     atom   60 type  3   force =     0.00016973    0.00034489   -0.00015449
[...]
     atom  106 type  1   force =    -0.00029136    0.00013387    0.00046303
     atom  107 type  1   force =     0.00080156    0.00008091    0.00007206
     atom  108 type  1   force =    -0.00021841    0.00016937   -0.00011947
     atom  109 type  1   force =    -0.00010591   -0.00021554   -0.00017460
     atom  110 type  1   force =     0.00044064    0.00027480    0.00062215
     atom  111 type  1   force =     0.00014950   -0.00008581   -0.00015921
     atom  112 type  1   force =    -0.00023285    0.00029211    0.00013844
     atom  113 type  1   force =    -0.00003130   -0.00002898   -0.00017475
     atom  114 type  1   force =    -0.00031418    0.00013165   -0.00028758
     atom  115 type  1   force =    -0.00000628   -0.00008871    0.00021459
     atom  116 type  1   force =    -0.00027483   -0.00016295    0.00011077
     atom  117 type  1   force =    -0.00020852   -0.00019036    0.00012049
     atom  118 type  1   force =     0.00000932   -0.00020351   -0.00021989
     atom  119 type  1   force =    -0.00004928   -0.00016649    0.00003669
     atom  120 type  1   force =    -0.00014311    0.00023863    0.00016815

     Total force =     0.005928     Total SCF correction =     0.000053

     Computing stress (Cartesian axis) and pressure

     negative rho (up, down):  2.945E-04 0.000E+00
          total   stress  (Ry/bohr**3)                   (kbar)     P=        0.02
  -0.00000020  -0.00000043  -0.00000026           -0.03       -0.06       -0.04
  -0.00000043   0.00000025  -0.00000011           -0.06        0.04       -0.02
  -0.00000026  -0.00000011   0.00000036           -0.04       -0.02        0.05

     Energy error            =      5.3E-05 Ry
     Gradient error          =      1.1E-03 Ry/Bohr
     Cell gradient error     =      6.3E-02 kbar

     number of scf cycles    =  50
     number of bfgs steps    =  49

     enthalpy           old  =   -4185.7194840389 Ry
     enthalpy           new  =   -4185.7195371483 Ry

     CASE: enthalpy          _new < enthalpy          _old

     new trust radius        =       0.0099028972 bohr

     The maximum number of steps has been reached.

     End of BFGS Geometry Optimization
     new unit-cell volume =  15370.21077 a.u.^3 (  2277.63025 Ang^3 )
     density =      1.25260 g/cm^3

CELL_PARAMETERS (alat= 27.52059178)
   1.001427581  -0.000248880  -0.000176153
   0.474783870   0.881724025  -0.000176252
   0.474785645   0.283503834   0.834905317

ATOMIC_POSITIONS (crystal)
Zr               0.8737609821        0.1195742732        0.1232019889
Zr               0.1232029624        0.8737608157        0.1195749190
Zr               0.1195737757        0.1232019234        0.8737611601
Zr               0.8821735146        0.8800625904        0.1265995683
Zr               0.1265998883        0.8821724887        0.8800619427
Zr               0.8800612029        0.1266003415        0.8821724152
O                0.9220100553        0.2594868408        0.0859777796
O                0.0859798919        0.9220080395        0.2594865382
O                0.2594865863        0.0859810414        0.9220066488
O                0.9153123038        0.0840577600        0.7387288924
O                0.0840576216        0.7387289891        0.9153136525
O                0.7387299858        0.9153098098        0.0840623412
O                0.9192457234        0.7592533555        0.0499496634
O                0.7592523155        0.0499451925        0.9192490895
O                0.2494325588        0.9447803714        0.0818283159
O                0.0499492391        0.9192465779        0.7592526969
O                0.8361999196        0.0465325929        0.0486802643
O                0.0486789268        0.8362009530        0.0465327983
O                0.0818309537        0.2494326068        0.9447777917
O                0.9447788806        0.0818290738        0.2494330724
O                0.2653534125        0.7330633678        0.0813573501
O                0.0813584080        0.2653531144        0.7330636476
O                0.7291823096        0.2629657522        0.0805207699
O                0.9220370257        0.7361029741        0.2652174678
O                0.2652190409        0.9220369928        0.7361022769
O                0.7361019975        0.2652189969        0.9220379737
O                0.0465323956        0.0486789268        0.8362011796
O                0.7429963175        0.9190000322        0.2728281248
O                0.0805189767        0.7291816554        0.2629670504
O                0.9563202299        0.9541475029        0.1633019011
O                0.9541475504        0.1633027276        0.9563197050
O                0.1633017894        0.9563213749        0.9541476119
O                0.9190035358        0.2728300724        0.7429945504
O                0.2629661744        0.0805191710        0.7291830573
O                0.2728290510        0.7429954770        0.9190012524
O                0.7330626779        0.0813558090        0.2653543714
N                0.8161610645        0.4351173430        0.1517098222
N                0.1517135756        0.8161544611        0.4351257013
N                0.4351220677        0.1517132583        0.8161548259
N                0.8172088236        0.5966661938        0.4297798934
N                0.5966726918        0.4297733665        0.8172144146
N                0.4297802649        0.8172124417        0.5966655101
C                0.0020332669        0.7065507488        0.9864486534
C                0.9864497576        0.0020314069        0.7065513982
C                0.0123065946        0.0006259756        0.2981837107
C                0.7065515086        0.9864553135        0.0020244903
C               -0.0026584262        0.4030418710        0.0085662508
C                0.4030415388        0.0085704154       -0.0026631510
C                0.2981835597        0.0123062958        0.0006268134
C                0.0006248502        0.2981835547        0.0123077133
C                0.9066674131        0.4662380709        0.0763314060
C                0.0763285932        0.9066713615        0.4662359485
C                0.0912209757        0.5384351038        0.9272135185
C                0.9937683661        0.0017009644        0.6008616448
C                0.0016947266        0.6008621414        0.9937728492
C                0.6008622298        0.9937668335        0.0017022184
C                0.0085692806       -0.0026621425        0.4030424948
C                0.9355695440        0.0876249059        0.4415738129
C                0.3086293944        0.6975323828        1.0000292510
C                0.6975326028        1.0000325630        0.3086288430
[...]
H                0.4038359198        0.1526664203        0.5758944939
H                0.5999177568        0.8458159119        0.4225004038
H                0.8087262451        0.3699978926        0.1503263725
H                0.7473990793        0.4933829866        0.1794637465
H                0.8458165053        0.4225013389        0.5999168905
H                0.8191551430        0.6571658839        0.3560369884
H                0.3560373833        0.8191550930        0.6571663008
H                0.7664780916        0.5521456520        0.4626963148
H                0.1794620722        0.7474027446        0.4933797961
H                0.6571631833        0.3560411279        0.8191549874
H                0.4933810305        0.1794627200        0.7474016186
H                0.1503256007        0.8087257150        0.3699955033
H                0.3699971713        0.1503260270        0.8087258035
H                0.5521420678        0.4626993978        0.7664753015
H                0.4626978480        0.7664767215        0.5521445026

     Writing config-only to output data dir ./pwscf.save/ :
     XML data file
     NEW-OLD atomic charge density approx. for the potential

     Check: negative core charge=   -0.000001

     negative rho (up, down):  2.919E-04 0.000E+00

     Writing all to output data dir ./pwscf.save/ :
     XML data file, charge density, pseudopotentials, collected wavefunctions

     General routines

     Parallel routines

   This run was terminated on:  12:31: 5   3Jun2025

   JOB DONE.