     Program PWSCF v.7.3.1 starts on  3Jun2025 at 13: 7:42

     Waiting for input...
     Reading input from standard input

     Current dimensions of program PWSCF are:
     Max number of different atomic species (ntypx) = 10
     Max number of k-points (npk) =  40000
     Max angular momentum in pseudopotentials (lmaxx) =  4
     file H.pbe-kjpaw_psl.1.0.0.UPF: wavefunction(s)  1S renormalized
     file Zr.pbe-spn-kjpaw_psl.1.0.0.UPF: wavefunction(s)  4S 4P renormalized
     file C.pbe-n-kjpaw_psl.1.0.0.UPF: wavefunction(s)  2S 2P renormalized
     file O.pbe-n-kjpaw_psl.1.0.0.UPF: wavefunction(s)  2S 2P renormalized

     IMPORTANT: XC functional enforced from input :
     Exchange-correlation= PBE
                           (   1   4   3   4   0   0   0)
     Any further DFT definition will be discarded
     Please, verify this is what you really want

     gamma-point specific algorithms are used
     Message from routine setup:
     using ibrav=0 with symmetry is DISCOURAGED, use correct ibrav instead

     R & G space division:  proc/nbgrp/npool/nimage =     256
     wavefunctions fft division:  task group distribution
                                  #TG    x Z-proc =       8     32
     Subspace diagonalization in iterative solution of the eigenvalue problem:
     one sub-group per band group will be used

     Using Pencil Decomposition

     Title:
     UiO-66-dehydrox GeomOpt

     bravais-lattice index     =            0
     lattice parameter (alat)  =      27.5901  a.u.
     unit-cell volume          =   15298.4291 (a.u.)^3
     number of atoms/cell      =          108
     number of atomic types    =            4
     number of electrons       =       468.00
     number of Kohn-Sham states=          234
     kinetic-energy cutoff     =      80.0000  Ry
     charge density cutoff     =     480.0000  Ry
     scf convergence threshold =      1.0E-08
     mixing beta               =       0.7000
     number of iterations used =            8  plain     mixing
     energy convergence thresh.=      3.6E-06
     force convergence thresh. =      1.0E-05
     press convergence thresh. =      5.0E-01
     Exchange-correlation= PBE
                           (   1   4   3   4   0   0   0)
     nstep                     =          750

     celldm(1)=  27.590096  celldm(2)=   0.000000  celldm(3)=   0.000000
     celldm(4)=   0.000000  celldm(5)=   0.000000  celldm(6)=   0.000000

     crystal axes: (cart. coord. in units of alat)
               a(1) = (   0.997641   0.000087   0.000062 )
               a(2) = (   0.473330   0.878207   0.000062 )
               a(3) = (   0.473330   0.282618   0.831490 )

     reciprocal axes: (cart. coord. in units 2 pi/alat)
               b(1) = (  1.002435 -0.540259 -0.387011 )
               b(2) = ( -0.000075  1.138751 -0.387012 )
               b(3) = ( -0.000074 -0.000045  1.202718 )

     PseudoPot. # 1 for H  read from file:
     /home/mehlhorn/pseudos/UiO-66_pbe-spn-kjpaw/H.pbe-kjpaw_psl.1.0.0.UPF
     MD5 check sum: d81a744832360e4a8af0b0b5b123bc2a
     Pseudo is Projector augmented-wave, Zval =  1.0
     Generated using &quot;atomic&quot; code by A. Dal Corso  v.6.3MaX
     Shape of augmentation charge: PSQ
     Using radial grid of  929 points,  2 beta functions with:
                l(1) =   0
                l(2) =   0
     Q(r) pseudized with 0 coefficients

     PseudoPot. # 2 for Zr read from file:
     /home/mehlhorn/pseudos/UiO-66_pbe-spn-kjpaw/Zr.pbe-spn-kjpaw_psl.1.0.0.UPF
     MD5 check sum: 02112c41713a0468aff2bb39ef194e36
     Pseudo is Projector augmented-wave + core cor, Zval = 12.0
     Generated using &quot;atomic&quot; code by A. Dal Corso  v.6.2.2
     Shape of augmentation charge: PSQ
     Using radial grid of 1225 points,  6 beta functions with:
                l(1) =   0
                l(2) =   0
                l(3) =   1
                l(4) =   1
                l(5) =   2
                l(6) =   2
     Q(r) pseudized with 0 coefficients

     PseudoPot. # 3 for C  read from file:
     /home/mehlhorn/pseudos/UiO-66_pbe-spn-kjpaw/C.pbe-n-kjpaw_psl.1.0.0.UPF
     MD5 check sum: 5f16ad9a65e90284d1d834d4ab3b0f7d
     Pseudo is Projector augmented-wave + core cor, Zval =  4.0
     Generated using &quot;atomic&quot; code by A. Dal Corso  v.6.3
     Shape of augmentation charge: PSQ
     Using radial grid of 1073 points,  4 beta functions with:
                l(1) =   0
                l(2) =   0
                l(3) =   1
                l(4) =   1
     Q(r) pseudized with 0 coefficients

     PseudoPot. # 4 for O  read from file:
     /home/mehlhorn/pseudos/UiO-66_pbe-spn-kjpaw/O.pbe-n-kjpaw_psl.1.0.0.UPF
     MD5 check sum: e99d9cef9b487d1ca56f5b95ecd0fd7a
     Pseudo is Projector augmented-wave + core cor, Zval =  6.0
     Generated using &quot;atomic&quot; code by A. Dal Corso  v.6.3
     Shape of augmentation charge: PSQ
     Using radial grid of 1095 points,  4 beta functions with:
                l(1) =   0
                l(2) =   0
                l(3) =   1
                l(4) =   1
     Q(r) pseudized with 0 coefficients

     atomic species   valence    mass     pseudopotential
     H                 1.00     1.00750     H ( 1.00)
     Zr               12.00    91.22400     Zr( 1.00)
     C                 4.00    12.01060     C ( 1.00)
     O                 6.00    15.99900     O ( 1.00)

      2 Sym. Ops., with inversion, found

   Cartesian axes

     site n.     atom                  positions (alat units)
         1        Zr     tau(   1) = (   0.9851016   0.1390964   0.1016574  )
         2        Zr     tau(   2) = (   0.9591996   1.0218146   0.7299565  )
         3        Zr     tau(   3) = (   0.5914365   0.8003195   0.0989918  )
         4        Zr     tau(   4) = (   1.3528647   0.3605921   0.7326212  )
         5        Zr     tau(   5) = (   0.5897544   0.3540430   0.7259134  )
         6        Zr     tau(   6) = (   1.3545463   0.8068689   0.1057005  )
         7        O      tau(   7) = (   1.0813092   0.2536816   0.0705305  )
         8        O      tau(   8) = (   0.8629925   0.9072303   0.7610833  )
         9        O      tau(   9) = (   0.6435849   0.8815044   0.2175000  )
        10        O      tau(  10) = (   1.3007167   0.2794075   0.6141138  )
        11        O      tau(  11) = (   0.7362652   0.3343323   0.7646516  )
        12        O      tau(  12) = (   1.2080364   0.8265796   0.0669622  )
        13        O      tau(  13) = (   1.2129363   0.3069139   0.7631482  )
        14        O      tau(  14) = (   0.7313654   0.8539980   0.0684656  )
        15        O      tau(  15) = (   1.2984081   0.6781675   0.0450561  )
        16        O      tau(  16) = (   0.6458936   0.4827444   0.7865578  )
        17        O      tau(  17) = (   0.8455684   1.0192778   0.6276105  )
        18        O      tau(  18) = (   1.0987333   0.1416342   0.2040033  )
        19        O      tau(  19) = (   1.0496376   1.0173767   0.6102290  )
        20        O      tau(  20) = (   0.8946641   0.1435353   0.2213849  )
        21        O      tau(  21) = (   1.2947151   0.4946591   0.7669418  )
        22        O      tau(  22) = (   0.6495866   0.6662529   0.0646721  )
        23        O      tau(  23) = (   1.3935417   0.7198010   0.2215959  )
        24        O      tau(  24) = (   0.5507600   0.4411110   0.6100179  )
        25        O      tau(  25) = (   0.5500555   0.7116443   0.2154455  )
        26        O      tau(  26) = (   1.3942461   0.4492677   0.6161683  )
        27        O      tau(  27) = (   0.6420729   0.2788425   0.6044852  )
        28        O      tau(  28) = (   1.3022288   0.8820694   0.2271286  )
        29        O      tau(  29) = (   0.8874083   0.2511713   0.0695251  )
        30        O      tau(  30) = (   1.0568934   0.9097406   0.7620887  )
        31        O      tau(  31) = (   0.8779259   0.0527469   0.0396752  )
        32        O      tau(  32) = (   1.0663758   1.1081651   0.7919387  )
        33        O      tau(  33) = (   0.4644742   0.7469885   0.0371770  )
        34        O      tau(  34) = (   1.4798275   0.4139234   0.7944368  )
        35        O      tau(  35) = (   0.4628977   0.2781792   0.6953084  )
        36        O      tau(  36) = (   1.4814040   0.8827327   0.1363055  )
        37        C      tau(  37) = (   1.3136555   0.9631126   0.2571884  )
        38        C      tau(  38) = (   0.6306462   0.1977994   0.5744254  )
        39        C      tau(  39) = (   1.1103237   0.8939298   0.8291502  )
        40        C      tau(  40) = (   0.8339780   0.2669821   0.0024636  )
        41        C      tau(  41) = (   1.4710119   0.4685960   0.5796206  )
        42        C      tau(  42) = (   0.4732898   0.6923159   0.2519933  )
        43        C      tau(  43) = (   0.8010199   0.8977775   0.8217206  )
        44        C      tau(  44) = (   1.1432818   0.2631344   0.0098932  )
        45        C      tau(  45) = (   1.3191834   0.1990585   0.5856540  )
        46        C      tau(  46) = (   0.6251183   0.9618534   0.2459598  )
        47        C      tau(  47) = (   1.1703168   0.8678819   0.0000416  )
        48        C      tau(  48) = (   0.7739849   0.2930300   0.8315722  )
        49        C      tau(  49) = (   1.1899763   0.3542052   0.0042449  )
        50        C      tau(  50) = (   0.7543254   0.8067067   0.8273689  )
        51        C      tau(  51) = (   0.6683561   0.9915964   0.3340053  )
        52        C      tau(  52) = (   1.2759456   0.1693155   0.4976085  )
        53        C      tau(  53) = (   0.8763074   0.2870082   0.8314050  )
        54        C      tau(  54) = (   1.0679943   0.8739037   0.0002088  )
        55        C      tau(  55) = (   0.6844859   0.1687762   0.4922586  )
        56        C      tau(  56) = (   1.2598158   0.9921357   0.3393552  )
        57        C      tau(  57) = (   0.7828102   0.3557134   0.0014201  )
        58        C      tau(  58) = (   1.1614915   0.8051985   0.8301937  )
        59        C      tau(  59) = (   0.4732808   0.6341978   0.3363417  )
        60        C      tau(  60) = (   1.4710209   0.5267142   0.4952722  )
[...]
        94        H      tau(  94) = (   1.3245497   0.5432779   0.4945674  )
        95        H      tau(  95) = (   0.7498632   0.2999308   0.4763502  )
        96        H      tau(  96) = (   1.1944385   0.8609811   0.3552636  )
        97        H      tau(  97) = (   0.7299003   0.8600991   0.3593409  )
        98        H      tau(  98) = (   1.2144014   0.3008128   0.4722729  )
        99        H      tau(  99) = (   0.8893742   0.3498764   0.6987479  )
       100        H      tau( 100) = (   1.0549275   0.8110355   0.1328659  )
       101        H      tau( 101) = (   1.1034116   0.4156943   0.1064549  )
       102        H      tau( 102) = (   0.8408901   0.7452176   0.7251589  )
       103        H      tau( 103) = (   0.8040103   0.9099233   0.5062592  )
       104        H      tau( 104) = (   1.1402914   0.2509886   0.3253546  )
       105        H      tau( 105) = (   1.0611011   0.3415244   0.6986526  )
       106        H      tau( 106) = (   0.8832006   0.8193875   0.1329612  )
[...]
H                0.1184461008        0.8401891288        0.6087866045
H                0.8815538992        0.1598108712        0.3912133955
H                0.6087875204        0.1184448410        0.8401889147
H                0.3912124796        0.8815551590        0.1598110853
H                0.8401894498        0.6087851918        0.1184479781
H                0.1598105502        0.3912148082        0.8815520219

     Writing config-only to output data dir ./pwscf.save/ :
     XML data file
     NEW-OLD atomic charge density approx. for the potential

     Check: negative core charge=   -0.000001

[...]

     Self-consistent Calculation

[...]

     Threshold (ethr) on eigenvalues was too large:
     Diagonalizing with lowered threshold

     Davidson diagonalization with overlap
     ethr =  1.95E-14,  avg # of iterations = 13.0

[...]

     total energy              =   -4009.17199652 Ry
     estimated scf accuracy    <          1.1E-10 Ry

     iteration #  4     ecut=    80.00 Ry     beta= 0.70
     Davidson diagonalization with overlap
     ethr =  1.00E-13,  avg # of iterations =  2.0

[...]

     End of self-consistent calculation

          k = 0.0000 0.0000 0.0000 ( 92363 PWs)   bands (ev):

   -49.6138 -49.5975 -49.5974 -49.5853 -49.5833 -49.5832 -28.1039 -28.0009
   -28.0009 -27.9075 -27.9075 -27.8995 -27.7720 -27.7272 -27.7271 -27.7205
   -27.7205 -27.6940 -27.6215 -27.6215 -27.5858 -27.5721 -27.5721 -27.5716
   -22.8389 -22.7918 -22.7918 -22.7861 -22.7860 -22.7606 -22.5839 -22.5773
   -22.5199 -22.5199 -22.5176 -22.5175 -20.5524 -20.5361 -20.5361 -20.5066
   -20.5065 -20.4709 -20.3469 -20.3469 -20.3235 -20.3235 -20.2401 -20.2361
   -17.9945 -17.7621 -17.7620 -17.5682 -17.5682 -17.5259 -17.3915 -17.3904
   -17.3904 -17.2135 -17.2135 -17.2113 -15.0495 -15.0494 -15.0400 -14.8616
   -14.8408 -14.8408 -14.4880 -14.4857 -14.4857 -14.3140 -14.3139 -14.3118
   -12.2908 -12.2546 -12.2545 -12.0949 -12.0362 -12.0362 -10.9629 -10.9629
   -10.9514 -10.7860 -10.7860 -10.7693 -10.2308 -10.2308 -10.1497 -10.0275
    -9.8539  -9.8539  -9.6148  -9.5557  -9.5557  -9.4462  -9.3766  -9.3766
    -8.7838  -8.6120  -8.5365  -8.5365  -8.3947  -8.3946  -8.3542  -8.1971
    -8.1970  -8.1492  -8.1492  -7.8691  -7.8667  -7.8666  -7.7622  -7.7621
    -7.6627  -7.6482  -7.6481  -7.6393  -7.5377  -7.3852  -7.3852  -7.2539
    -7.1553  -6.9172  -6.9172  -6.8586  -6.8322  -6.8317  -6.8317  -6.7358
    -6.7357  -6.6987  -6.6885  -6.6885  -6.6665  -6.6665  -6.6558  -6.5692
    -6.5339  -6.5339  -6.5117  -6.4522  -6.4247  -6.4247  -6.3474  -6.3473
    -6.2151  -6.1883  -6.1883  -6.0315  -6.0314  -6.0141  -5.7280  -5.6341
    -5.6340  -5.4573  -5.2480  -5.2480  -5.1307  -5.0006  -4.9571  -4.9571
    -4.8899  -4.8899  -4.8895  -4.8895  -4.8658  -4.7826  -4.7678  -4.7678
    -4.7314  -4.2505  -4.2505  -4.1975  -4.1502  -4.1502  -4.1501  -4.1436
    -4.1436  -3.9862  -3.9861  -3.9773  -3.9773  -3.9593  -3.8051  -3.6425
    -3.6425  -3.6106  -3.5191  -3.4021  -3.3712  -3.3712  -3.2983  -3.2416
    -3.2416  -3.2066  -3.1673  -3.1673  -3.0819  -3.0422  -3.0422  -2.9791
    -2.9791  -2.9224  -2.9224  -2.8176  -2.7472  -2.6838  -2.6838  -2.6833
    -2.6361  -2.6361  -2.5825  -2.5824  -2.5317  -2.5307  -2.5307  -2.4833
    -2.4261  -2.4261  -2.3922  -2.3788  -2.3780  -2.3722  -2.3722  -2.3446
    -2.3446  -2.2858  -2.2390  -2.2389  -2.1742  -2.1741  -2.1576  -1.6318
    -1.6318  -1.4963

     highest occupied level (ev):    -1.4963

!    total energy              =   -4009.17199652 Ry
     total all-electron energy =    -51389.589103 Ry
     estimated scf accuracy    <          5.1E-11 Ry

     The total energy is the sum of the following terms:
     one-electron contribution =   -6098.77728629 Ry
     hartree contribution      =    3180.87414568 Ry
     xc contribution           =    -570.38663410 Ry
     ewald contribution        =    1322.83527894 Ry
     one-center paw contrib.   =   -1843.71750075 Ry

     convergence has been achieved in   4 iterations

     negative rho (up, down):  5.011E-04 0.000E+00

     Forces acting on atoms (cartesian axes, Ry/au):

     atom    1 type  2   force =    -0.00001078   -0.00002642   -0.00001294
     atom    2 type  2   force =     0.00001078    0.00002642    0.00001294
     atom    3 type  2   force =    -0.00001264   -0.00000764   -0.00001666
     atom    4 type  2   force =     0.00001264    0.00000764    0.00001666
     atom    5 type  2   force =    -0.00001078   -0.00000752    0.00001084
     atom    6 type  2   force =     0.00001078    0.00000752   -0.00001084
     atom    7 type  4   force =    -0.00002513   -0.00000632    0.00003075
     atom    8 type  4   force =     0.00002513    0.00000632   -0.00003075
     atom    9 type  4   force =     0.00000383   -0.00000543   -0.00000781
     atom   10 type  4   force =    -0.00000383    0.00000543    0.00000781
     atom   11 type  4   force =    -0.00000369    0.00000185    0.00000530
     atom   12 type  4   force =     0.00000369   -0.00000185   -0.00000530
     atom   13 type  4   force =     0.00001821    0.00000600   -0.00001291
     atom   14 type  4   force =    -0.00001821   -0.00000600    0.00001291
     atom   15 type  4   force =     0.00001442    0.00000336   -0.00001114
     atom   16 type  4   force =    -0.00001442   -0.00000336    0.00001114
     atom   17 type  4   force =     0.00001096   -0.00000257    0.00001566
     atom   18 type  4   force =    -0.00001096    0.00000257   -0.00001566
     atom   19 type  4   force =    -0.00000975   -0.00000970    0.00000151
     atom   20 type  4   force =     0.00000975    0.00000970   -0.00000151
     atom   21 type  4   force =    -0.00000146    0.00000891    0.00001286
     atom   22 type  4   force =     0.00000146   -0.00000891   -0.00001286
     atom   23 type  4   force =    -0.00001881   -0.00000111   -0.00000108
     atom   24 type  4   force =     0.00001881    0.00000111    0.00000108
     atom   25 type  4   force =    -0.00004332   -0.00001346    0.00002012
     atom   26 type  4   force =     0.00004332    0.00001346   -0.00002012
     atom   27 type  4   force =    -0.00000158   -0.00000972   -0.00000920
     atom   28 type  4   force =     0.00000158    0.00000972    0.00000920
     atom   29 type  4   force =     0.00001639   -0.00000565    0.00002416
     atom   30 type  4   force =    -0.00001639    0.00000565   -0.00002416
     atom   31 type  4   force =    -0.00000022    0.00000449    0.00001153
     atom   32 type  4   force =     0.00000022   -0.00000449   -0.00001153
     atom   33 type  4   force =     0.00000898   -0.00000727   -0.00000417
     atom   34 type  4   force =    -0.00000898    0.00000727    0.00000417
     atom   35 type  4   force =     0.00000398    0.00000317   -0.00000707
     atom   36 type  4   force =    -0.00000398   -0.00000317    0.00000707
     atom   37 type  3   force =    -0.00001953   -0.00002922    0.00001009
     atom   38 type  3   force =     0.00001953    0.00002922   -0.00001009
     atom   39 type  3   force =     0.00002412   -0.00001129    0.00002317
     atom   40 type  3   force =    -0.00002412    0.00001129   -0.00002317
     atom   41 type  3   force =    -0.00008637    0.00000095    0.00001001
     atom   42 type  3   force =     0.00008637   -0.00000095   -0.00001001
     atom   43 type  3   force =    -0.00003263   -0.00000480    0.00002577
     atom   44 type  3   force =     0.00003263    0.00000480   -0.00002577
     atom   45 type  3   force =    -0.00002336    0.00001802   -0.00001618
     atom   46 type  3   force =     0.00002336   -0.00001802    0.00001618
     atom   47 type  3   force =    -0.00001446   -0.00002629    0.00004129
     atom   48 type  3   force =     0.00001446    0.00002629   -0.00004129
     atom   49 type  3   force =    -0.00003687    0.00000504    0.00004461
     atom   50 type  3   force =     0.00003687   -0.00000504   -0.00004461
     atom   51 type  3   force =    -0.00001418    0.00002238   -0.00002302
     atom   52 type  3   force =     0.00001418   -0.00002238    0.00002302
     atom   53 type  3   force =    -0.00002950   -0.00000590    0.00002973
     atom   54 type  3   force =     0.00002950    0.00000590   -0.00002973
     atom   55 type  3   force =     0.00000767    0.00001195    0.00000186
     atom   56 type  3   force =    -0.00000767   -0.00001195   -0.00000186
     atom   57 type  3   force =     0.00000120   -0.00002255   -0.00002509
     atom   58 type  3   force =    -0.00000120    0.00002255    0.00002509
     atom   59 type  3   force =    -0.00007730    0.00001000    0.00000279
     atom   60 type  3   force =     0.00007730   -0.00001000   -0.00000279
[...]
     atom   94 type  1   force =     0.00001156    0.00000642    0.00000508
     atom   95 type  1   force =    -0.00000849    0.00000460   -0.00000247
     atom   96 type  1   force =     0.00000849   -0.00000460    0.00000247
     atom   97 type  1   force =     0.00001153    0.00000101    0.00000079
     atom   98 type  1   force =    -0.00001153   -0.00000101   -0.00000079
     atom   99 type  1   force =     0.00000441    0.00001097   -0.00000124
     atom  100 type  1   force =    -0.00000441   -0.00001097    0.00000124
     atom  101 type  1   force =    -0.00000235    0.00000502    0.00001699
     atom  102 type  1   force =     0.00000235   -0.00000502   -0.00001699
     atom  103 type  1   force =     0.00001278    0.00000622    0.00001045
     atom  104 type  1   force =    -0.00001278   -0.00000622   -0.00001045
     atom  105 type  1   force =     0.00001889    0.00000688   -0.00000097
     atom  106 type  1   force =    -0.00001889   -0.00000688    0.00000097
     atom  107 type  1   force =     0.00001818   -0.00000179   -0.00000713
     atom  108 type  1   force =    -0.00001818    0.00000179    0.00000713

     Total force =     0.000381     Total SCF correction =     0.000020

     Computing stress (Cartesian axis) and pressure

     negative rho (up, down):  5.011E-04 0.000E+00
          total   stress  (Ry/bohr**3)                   (kbar)     P=        0.00
   0.00000001  -0.00000001   0.00000001            0.00       -0.00        0.00
  -0.00000001  -0.00000000  -0.00000001           -0.00       -0.00       -0.00
   0.00000001  -0.00000001   0.00000002            0.00       -0.00        0.00

     Message from routine bfgs:
     history already reset at previous step: exiting
     Energy error            =      2.0E-10 Ry
     Gradient error          =      8.6E-05 Ry/Bohr
     Cell gradient error     =      2.8E-03 kbar

     bfgs failed after   4 scf cycles and   2 bfgs steps, convergence not achieved
     (criteria: energy <  3.6E-06 Ry, force <  1.0E-05 Ry/Bohr, cell <  5.0E-01 kbar)

     End of BFGS Geometry Optimization

     Final enthalpy           =   -4009.1719965216 Ry

     File ./pwscf.bfgs deleted, as requested
Begin final coordinates
     new unit-cell volume =  15298.46208 a.u.^3 (  2266.99819 Ang^3 )
     density =      1.19249 g/cm^3

CELL_PARAMETERS (alat= 27.59009591)
   0.997642052   0.000086831   0.000061866
   0.473330796   0.878207873   0.000062213
   0.473330528   0.282618522   0.831490513

ATOMIC_POSITIONS (crystal)
Zr               0.8730086046        0.1189793526        0.1221876389
Zr               0.1269913954        0.8810196474        0.8778123611
Zr               0.1221880918        0.8730084025        0.1189793921
Zr               0.8778119082        0.1269915975        0.8810196079
Zr               0.1189783882        0.1221875448        0.8730083649
Zr               0.8810206118        0.8778124552        0.1269916351
O                0.9195924938        0.2615027822        0.0847370730
O                0.0804075062        0.7384972178        0.9152629270
O                0.0847377801        0.9195906542        0.2615034152
O                0.9152622199        0.0804093458        0.7384965848
O                0.2615033002        0.0847374535        0.9195905494
O                0.7384966998        0.9152625465        0.0804094506
O                0.7547309527        0.0540601213        0.9177482310
O                0.2452690473        0.9459398787        0.0822517690
O                0.9177475321        0.7547302022        0.0540619904
O                0.0822524679        0.2452697978        0.9459380096
O                0.0540609076        0.9177488018        0.7547302003
O                0.9459390924        0.0822511982        0.2452697997
O                0.2663821838        0.9222948692        0.7338088558
O                0.7336178162        0.0777051308        0.2661911442
O                0.7338085993        0.2663815866        0.9222961396
O                0.2661914007        0.7336184134        0.0777038604
O                0.9222970064        0.7338088601        0.2663818097
O                0.0777029936        0.2661911399        0.7336181903
O                0.0835440175        0.7269643692        0.2590475405
O                0.9164559825        0.2730356308        0.7409524595
O                0.2590472600        0.0835414575        0.7269643267
O                0.7409527400        0.9164585425        0.2730356733
O                0.7269642071        0.2590485654        0.0835417873
O                0.2730357929        0.7409514346        0.9164582127
O                0.8362116779        0.0446453135        0.0476508859
O                0.1637883221        0.9553546865        0.9523491141
O                0.0476512113        0.8362110491        0.0446455182
O                0.9523487887        0.1637889509        0.9553544818
O                0.0446443560        0.0476507257        0.8362123308
O                0.9553556440        0.9523492743        0.1637876692
C                0.6969896979        0.9971123548        0.3091845439
C                0.3030103021        0.0028876452        0.6908154561
C                0.3091843168        0.6969896740        0.9971103614
C                0.6908156832        0.3030103260        0.0028896386
C                0.9971114600        0.3091847020        0.6969892169
C                0.0028885400        0.6908152980        0.3030107831
C               -0.0000757654        0.7042702860        0.9881972492
C                1.0000757654        0.2957297140        0.0118027508
C                0.9881976530       -0.0000755743        0.7042700378
C                0.0118023470        1.0000755743        0.2957299622
C                0.7042703211        0.9881978340       -0.0000763875
C                0.2957296789        0.0118021660        1.0000763875
C                0.9998693090        0.4016191320        0.0050012827
C                0.0001306910        0.5983808680        0.9949987173
C                0.0050024698        0.9998673068        0.4016195508
C                0.9949975302        0.0001326932        0.5983804492
C                0.4016195515        0.0050027257        0.9998673976
C                0.5983804485        0.9949972743        0.0001326024
C                0.4044608313        0.0016328484        0.5919897255
C                0.5955391687        0.9983671516        0.4080102745
C                0.5919895165        0.4044612977        0.0016339435
C                0.4080104835        0.5955387023        0.9983660565
C                0.0016352556        0.5919897566        0.4044609410
C                0.9983647444        0.4080102434        0.5955390590
[...]
H                0.8428612289        0.4271560305        0.5947028851
H                0.4052955305        0.1571376150        0.5728453703
H                0.5947044695        0.8428623850        0.4271546297
H                0.1279337676        0.8403150608        0.4320930071
H                0.8720662324        0.1596849392        0.5679069929
H                0.4320934054        0.1279328160        0.8403146731
H                0.5679065946        0.8720671840        0.1596853269
H                0.8403168804        0.4320907492        0.1279351986
H                0.1596831196        0.5679092508        0.8720648014
H                0.1184461008        0.8401891288        0.6087866045
H                0.8815538992        0.1598108712        0.3912133955
H                0.6087875204        0.1184448410        0.8401889147
H                0.3912124796        0.8815551590        0.1598110853
H                0.8401894498        0.6087851918        0.1184479781
H                0.1598105502        0.3912148082        0.8815520219
End final coordinates

     Writing config-only to output data dir ./pwscf.save/ :
     XML data file

     Writing all to output data dir ./pwscf.save/ :
     XML data file, charge density, pseudopotentials, collected wavefunctions

     General routines

     Parallel routines

   This run was terminated on:  13:12:24   3Jun2025

   JOB DONE.