     Program PHONON v.7.3.1 starts on 18Jun2025 at 14:19:31

     Waiting for input...
     Reading input from standard input

     Reading xml data from directory:

     ./pwscf.save/

     R & G space division:  proc/nbgrp/npool/nimage =     256
     wavefunctions fft division:  task group distribution
                                  #TG    x Z-proc =       8     32
     Subspace diagonalization in iterative solution of the eigenvalue problem:
     one sub-group per band group will be used

     file H.pbe-kjpaw_psl.1.0.0.UPF: wavefunction(s)  1S renormalized
     file Zr.pbe-spn-kjpaw_psl.1.0.0.UPF: wavefunction(s)  4S 4P renormalized
     file C.pbe-n-kjpaw_psl.1.0.0.UPF: wavefunction(s)  2S 2P renormalized
     file O.pbe-n-kjpaw_psl.1.0.0.UPF: wavefunction(s)  2S 2P renormalized

     IMPORTANT: XC functional enforced from input :
     Exchange-correlation= PBE
                           (   1   4   3   4   0   0   0)
     Any further DFT definition will be discarded
     Please, verify this is what you really want

     Using Pencil Decomposition

     negative rho (up, down):  3.881E-05 0.000E+00
     Reading collected, re-writing distributed wavefunctions in ./

     Number and degeneracy of irreps per q-point
       N         xq(1)         xq(2)         xq(3)   N irreps
       1   0.000000000   0.000000000   0.000000000     324
     No degeneracy

     Calculation of q =    0.0000000   0.0000000   0.0000000

     dielectric constant

     bravais-lattice index     =            5
     lattice parameter (alat)  =      27.5251  a.u.
     unit-cell volume          =   15298.4561 (a.u.)^3
     number of atoms/cell      =          108
     number of atomic types    =            4
     kinetic-energy cut-off    =     150.0000  Ry
     charge density cut-off    =     900.0000  Ry
     convergence threshold     =      1.0E-14
     beta                      =       0.7000
     number of iterations used =            4
     Exchange-correlation= PBE
                           (   1   4   3   4   0   0   0)

     celldm(1)=   27.52506  celldm(2)=    0.00000  celldm(3)=    0.00000
     celldm(4)=    0.47453  celldm(5)=    0.00000  celldm(6)=    0.00000

     crystal axes: (cart. coord. in units of alat)
               a(1) = (  0.5126 -0.2959  0.8060 )
               a(2) = (  0.0000  0.5919  0.8060 )
               a(3) = ( -0.5126 -0.2959  0.8060 )

     reciprocal axes: (cart. coord. in units 2 pi/alat)
               b(1) = (  0.9755 -0.5632  0.4135 )
               b(2) = (  0.0000  1.1264  0.4135 )
               b(3) = ( -0.9755 -0.5632  0.4135 )

     Atoms inside the unit cell:

     Cartesian axes

     site n.  atom      mass           positions (alat units)
        1  C      12.0106   tau(    1) = (   -0.15996   -0.26999    1.21169  )
        2  C      12.0106   tau(    2) = (    0.15996    0.26999    1.20640  )
        3  C      12.0106   tau(    3) = (    0.31380   -0.00354    1.21169  )
        4  C      12.0106   tau(    4) = (   -0.31380    0.00354    1.20640  )
        5  C      12.0106   tau(    5) = (   -0.15384    0.27353    1.21169  )
        6  C      12.0106   tau(    6) = (    0.15384   -0.27353    1.20640  )
        7  C      12.0106   tau(    7) = (   -0.14553    0.09097    0.96110  )
        8  C      12.0106   tau(    8) = (    0.14553   -0.09097    1.45699  )
        9  C      12.0106   tau(    9) = (   -0.00601   -0.17152    0.96110  )
       10  C      12.0106   tau(   10) = (    0.00601    0.17152    1.45699  )
       11  C      12.0106   tau(   11) = (    0.15155    0.08055    0.96110  )
       12  C      12.0106   tau(   12) = (   -0.15155   -0.08055    1.45699  )
       13  C      12.0106   tau(   13) = (    0.20330   -0.12041    1.53669  )
       14  C      12.0106   tau(   14) = (   -0.20330    0.12041    0.88140  )
       15  C      12.0106   tau(   15) = (    0.00263    0.23627    1.53669  )
       16  C      12.0106   tau(   16) = (   -0.00263   -0.23627    0.88140  )
       17  C      12.0106   tau(   17) = (   -0.20593   -0.11586    1.53669  )
       18  C      12.0106   tau(   18) = (    0.20593    0.11586    0.88140  )
       19  C      12.0106   tau(   19) = (    0.20997    0.35965    1.20750  )
       20  C      12.0106   tau(   20) = (   -0.20997   -0.35965    1.21059  )
       21  C      12.0106   tau(   21) = (   -0.41646    0.00202    1.20750  )
       22  C      12.0106   tau(   22) = (    0.41646   -0.00202    1.21059  )
       23  C      12.0106   tau(   23) = (    0.20648   -0.36167    1.20750  )
       24  C      12.0106   tau(   24) = (   -0.20648    0.36167    1.21059  )
       25  C      12.0106   tau(   25) = (    0.20012   -0.21165    1.56745  )
       26  C      12.0106   tau(   26) = (   -0.20012    0.21165    0.85064  )
       27  C      12.0106   tau(   27) = (    0.08324    0.27913    1.56745  )
       28  C      12.0106   tau(   28) = (   -0.08324   -0.27913    0.85064  )
       29  C      12.0106   tau(   29) = (   -0.28335   -0.06748    1.56745  )
       30  C      12.0106   tau(   30) = (    0.28335    0.06748    0.85064  )
       31  C      12.0106   tau(   31) = (    0.08064   -0.25344    0.83618  )
       32  C      12.0106   tau(   32) = (   -0.08064    0.25344    1.58191  )
       33  C      12.0106   tau(   33) = (    0.17916    0.19656    0.83618  )
       34  C      12.0106   tau(   34) = (   -0.17916   -0.19656    1.58191  )
       35  C      12.0106   tau(   35) = (   -0.25981    0.05688    0.83618  )
       36  C      12.0106   tau(   36) = (    0.25981   -0.05688    1.58191  )
       37  C      12.0106   tau(   37) = (    0.18543    0.42955    1.14592  )
       38  C      12.0106   tau(   38) = (   -0.18543   -0.42955    1.27216  )
       39  C      12.0106   tau(   39) = (   -0.46472   -0.05419    1.14592  )
       40  C      12.0106   tau(   40) = (    0.46472    0.05419    1.27216  )
       41  C      12.0106   tau(   41) = (    0.27929   -0.37536    1.14592  )
       42  C      12.0106   tau(   42) = (   -0.27929    0.37536    1.27216  )
       43  C      12.0106   tau(   43) = (   -0.46499    0.05618    1.27064  )
       44  C      12.0106   tau(   44) = (    0.46499   -0.05618    1.14745  )
       45  C      12.0106   tau(   45) = (    0.18384   -0.43079    1.27064  )
       46  C      12.0106   tau(   46) = (   -0.18384    0.43079    1.14745  )
       47  C      12.0106   tau(   47) = (    0.28115    0.37461    1.27064  )
       48  C      12.0106   tau(   48) = (   -0.28115   -0.37461    1.14745  )
       49  H       1.0075   tau(   49) = (    0.29623   -0.32112    1.09733  )
       50  H       1.0075   tau(   50) = (   -0.29623    0.32112    1.32076  )
       51  H       1.0075   tau(   51) = (    0.12998    0.41711    1.09733  )
       52  H       1.0075   tau(   52) = (   -0.12998   -0.41711    1.32076  )
       53  H       1.0075   tau(   53) = (   -0.42621   -0.09599    1.09733  )
       54  H       1.0075   tau(   54) = (    0.42621    0.09599    1.32076  )
       55  H       1.0075   tau(   55) = (    0.12720   -0.41926    1.31809  )
       56  H       1.0075   tau(   56) = (   -0.12720    0.41926    1.10000  )
       57  H       1.0075   tau(   57) = (    0.29949    0.31979    1.31809  )
       58  H       1.0075   tau(   58) = (   -0.29949   -0.31979    1.10000  )
       59  H       1.0075   tau(   59) = (   -0.42669    0.09947    1.31809  )
       60  H       1.0075   tau(   60) = (    0.42669   -0.09947    1.10000  )
[...]
       94  O      15.9990   tau(   94) = (   -0.09007    0.26293    1.15315  )
       95  O      15.9990   tau(   95) = (    0.18267    0.20947    1.26494  )
       96  O      15.9990   tau(   96) = (   -0.18267   -0.20947    1.15315  )
       97  O      15.9990   tau(   97) = (   -0.00154   -0.12426    1.15142  )
       98  O      15.9990   tau(   98) = (    0.00154    0.12426    1.26667  )
       99  O      15.9990   tau(   99) = (    0.10838    0.06080    1.15142  )
      100  O      15.9990   tau(  100) = (   -0.10838   -0.06080    1.26667  )
      101  O      15.9990   tau(  101) = (   -0.10684    0.06346    1.15142  )
      102  O      15.9990   tau(  102) = (    0.10684   -0.06346    1.26667  )
      103  Zr     91.2240   tau(  103) = (   -0.00164   -0.14653    1.30107  )
      104  Zr     91.2240   tau(  104) = (    0.00164    0.14653    1.11701  )
      105  Zr     91.2240   tau(  105) = (    0.12772    0.07184    1.30107  )
      106  Zr     91.2240   tau(  106) = (   -0.12772   -0.07184    1.11701  )
      107  Zr     91.2240   tau(  107) = (   -0.12608    0.07469    1.30107  )
      108  Zr     91.2240   tau(  108) = (    0.12608   -0.07469    1.11701  )

     Computing dynamical matrix for
                    q = (   0.0000000   0.0000000   0.0000000 )

      7 Sym.Ops. (with q -> -q+G )

     G cutoff =17271.8675  (  27245 G-vectors)     FFT grid: (270,270,270)
     G cutoff =11514.5783  (  14830 G-vectors)  smooth grid: (216,216,216)
     number of k points=     1
                       cart. coord. in units 2pi/alat
        k(    1) = (   0.0000000   0.0000000   0.0000000), wk =   2.0000000

     PseudoPot. # 1 for H  read from file:
     /home/mehlhorn/pseudos/UiO-66_pbe-spn-kjpaw/H.pbe-kjpaw_psl.1.0.0.UPF
     MD5 check sum: d81a744832360e4a8af0b0b5b123bc2a
     Pseudo is Projector augmented-wave, Zval =  1.0
     Generated using &quot;atomic&quot; code by A. Dal Corso  v.6.3MaX
     Shape of augmentation charge: PSQ
     Using radial grid of  929 points,  2 beta functions with:
                l(1) =   0
                l(2) =   0
     Q(r) pseudized with 0 coefficients

     PseudoPot. # 2 for Zr read from file:
     /home/mehlhorn/pseudos/UiO-66_pbe-spn-kjpaw/Zr.pbe-spn-kjpaw_psl.1.0.0.UPF
     MD5 check sum: 02112c41713a0468aff2bb39ef194e36
     Pseudo is Projector augmented-wave + core cor, Zval = 12.0
     Generated using &quot;atomic&quot; code by A. Dal Corso  v.6.2.2
     Shape of augmentation charge: PSQ
     Using radial grid of 1225 points,  6 beta functions with:
                l(1) =   0
                l(2) =   0
                l(3) =   1
                l(4) =   1
                l(5) =   2
                l(6) =   2
     Q(r) pseudized with 0 coefficients

     PseudoPot. # 3 for C  read from file:
     /home/mehlhorn/pseudos/UiO-66_pbe-spn-kjpaw/C.pbe-n-kjpaw_psl.1.0.0.UPF
     MD5 check sum: 5f16ad9a65e90284d1d834d4ab3b0f7d
     Pseudo is Projector augmented-wave + core cor, Zval =  4.0
     Generated using &quot;atomic&quot; code by A. Dal Corso  v.6.3
     Shape of augmentation charge: PSQ
     Using radial grid of 1073 points,  4 beta functions with:
                l(1) =   0
                l(2) =   0
                l(3) =   1
                l(4) =   1
     Q(r) pseudized with 0 coefficients

     PseudoPot. # 4 for O  read from file:
     /home/mehlhorn/pseudos/UiO-66_pbe-spn-kjpaw/O.pbe-n-kjpaw_psl.1.0.0.UPF
     MD5 check sum: e99d9cef9b487d1ca56f5b95ecd0fd7a
     Pseudo is Projector augmented-wave + core cor, Zval =  6.0
     Generated using &quot;atomic&quot; code by A. Dal Corso  v.6.3
     Shape of augmentation charge: PSQ
     Using radial grid of 1095 points,  4 beta functions with:
                l(1) =   0
[...]
      E*y (       -0.06983       -0.10350       -0.06895 )
      E*z (        0.11272        0.08859       -0.04525 )
           atom   38  C     Mean Z*:       -0.06007
      E*x (       -0.03146        0.10049        0.02984 )
      E*y (       -0.06983       -0.10350       -0.06895 )
      E*z (        0.11272        0.08859       -0.04525 )
           atom   39  C     Mean Z*:       -0.06007
      E*x (       -0.07221        0.04630        0.04479 )
      E*y (       -0.12401       -0.06274        0.06032 )
      E*z (       -0.13308        0.05332       -0.04525 )
           atom   40  C     Mean Z*:       -0.06007
      E*x (       -0.07221        0.04630        0.04479 )
      E*y (       -0.12401       -0.06274        0.06032 )
      E*z (       -0.13308        0.05332       -0.04525 )
           atom   41  C     Mean Z*:       -0.06007
      E*x (       -0.09876        0.10869       -0.07463 )
      E*y (       -0.06163       -0.03619        0.00863 )
      E*z (        0.02036       -0.14191       -0.04525 )
           atom   42  C     Mean Z*:       -0.06007
      E*x (       -0.09876        0.10869       -0.07463 )
      E*y (       -0.06163       -0.03619        0.00863 )
      E*z (        0.02036       -0.14191       -0.04525 )
           atom   43  C     Mean Z*:       -0.05674
      E*x (       -0.06431       -0.04322       -0.05233 )
      E*y (        0.12596       -0.05562        0.06045 )
      E*z (        0.12935        0.05991       -0.05029 )
           atom   44  C     Mean Z*:       -0.05674
      E*x (       -0.06431       -0.04322       -0.05233 )
      E*y (        0.12596       -0.05562        0.06045 )
      E*z (        0.12935        0.05991       -0.05029 )
           atom   45  C     Mean Z*:       -0.05674
      E*x (       -0.02196       -0.10151       -0.02619 )
      E*y (        0.06767       -0.09797       -0.07554 )
      E*z (       -0.11656        0.08207       -0.05029 )
           atom   46  C     Mean Z*:       -0.05674
      E*x (       -0.02196       -0.10151       -0.02619 )
      E*y (        0.06767       -0.09797       -0.07554 )
      E*z (       -0.11656        0.08207       -0.05029 )
           atom   47  C     Mean Z*:       -0.05674
      E*x (       -0.09362       -0.10904        0.07851 )
      E*y (        0.06014       -0.02631        0.01509 )
      E*z (       -0.01279       -0.14198       -0.05029 )
           atom   48  C     Mean Z*:       -0.05674
      E*x (       -0.09362       -0.10904        0.07851 )
      E*y (        0.06014       -0.02631        0.01509 )
      E*z (       -0.01279       -0.14198       -0.05029 )
           atom   49  H     Mean Z*:        0.09988
      E*x (        0.14580       -0.03041        0.03870 )
      E*y (       -0.05111        0.09170        0.09409 )
      E*z (        0.04517        0.07278        0.06216 )
           atom   50  H     Mean Z*:        0.09988
      E*x (        0.14580       -0.03041        0.03870 )
      E*y (       -0.05111        0.09170        0.09409 )
      E*z (        0.04517        0.07278        0.06216 )
           atom   51  H     Mean Z*:        0.09988
      E*x (        0.06993        0.00730       -0.10083 )
      E*y (       -0.01340        0.16757       -0.01353 )
      E*z (       -0.08561        0.00273        0.06216 )
           atom   52  H     Mean Z*:        0.09988
      E*x (        0.06993        0.00730       -0.10083 )
      E*y (       -0.01340        0.16757       -0.01353 )
      E*z (       -0.08561        0.00273        0.06216 )
           atom   53  H     Mean Z*:        0.09988
      E*x (        0.14052        0.05415        0.06213 )
      E*y (        0.03346        0.09698       -0.08056 )
      E*z (        0.04044       -0.07551        0.06216 )
           atom   54  H     Mean Z*:        0.09988
      E*x (        0.14052        0.05415        0.06213 )
      E*y (        0.03346        0.09698       -0.08056 )
      E*z (        0.04044       -0.07551        0.06216 )
           atom   55  H     Mean Z*:        0.09917
      E*x (        0.06452       -0.00423        0.09856 )
      E*y (        0.01723        0.16936       -0.00967 )
      E*z (        0.08722        0.00579        0.06364 )
           atom   56  H     Mean Z*:        0.09917
      E*x (        0.06452       -0.00423        0.09856 )
      E*y (        0.01723        0.16936       -0.00967 )
      E*z (        0.08722        0.00579        0.06364 )
           atom   57  H     Mean Z*:        0.09917
      E*x (        0.14878        0.03142       -0.04091 )
      E*y (        0.05288        0.08510        0.09019 )
      E*z (       -0.04862        0.07263        0.06364 )
           atom   58  H     Mean Z*:        0.09917
      E*x (        0.14878        0.03142       -0.04091 )
      E*y (        0.05288        0.08510        0.09019 )
      E*z (       -0.04862        0.07263        0.06364 )
           atom   59  H     Mean Z*:        0.09917
      E*x (        0.13752       -0.05938       -0.05765 )
      E*y (       -0.03792        0.09636       -0.08052 )
      E*z (       -0.03859       -0.07843        0.06364 )
           atom   60  H     Mean Z*:        0.09917
      E*x (        0.13752       -0.05938       -0.05765 )
      E*y (       -0.03792        0.09636       -0.08052 )
      E*z (       -0.03859       -0.07843        0.06364 )
           atom   61  H     Mean Z*:        0.09702
      E*x (        0.14421        0.05412       -0.01857 )
      E*y (        0.06537        0.01951        0.04830 )
      E*z (       -0.03762        0.06568        0.12734 )
           atom   62  H     Mean Z*:        0.09702
      E*x (        0.14421        0.05412       -0.01857 )
      E*y (        0.06537        0.01951        0.04830 )
      E*z (       -0.03762        0.06568        0.12734 )
           atom   63  H     Mean Z*:        0.09702
      E*x (        0.10242       -0.08949       -0.03254 )
      E*y (       -0.07825        0.06129       -0.04024 )
      E*z (       -0.03807       -0.06542        0.12734 )
           atom   64  H     Mean Z*:        0.09702
      E*x (        0.10242       -0.08949       -0.03254 )
      E*y (       -0.07825        0.06129       -0.04024 )
      E*z (       -0.03807       -0.06542        0.12734 )
           atom   65  H     Mean Z*:        0.09702
      E*x (       -0.00106        0.01850        0.05112 )
      E*y (        0.02975        0.16477       -0.00806 )
      E*z (        0.07569       -0.00027        0.12734 )
           atom   66  H     Mean Z*:        0.09702
      E*x (       -0.00106        0.01850        0.05112 )
      E*y (        0.02975        0.16477       -0.00806 )
      E*z (        0.07569       -0.00027        0.12734 )
           atom   67  H     Mean Z*:        0.09755
      E*x (        0.05116        0.09159        0.02126 )
      E*y (        0.07405        0.08708       -0.02342 )
      E*z (        0.04285       -0.03367        0.15443 )
           atom   68  H     Mean Z*:        0.09755
      E*x (        0.05116        0.09159        0.02126 )
      E*y (        0.07405        0.08708       -0.02342 )
      E*z (        0.04285       -0.03367        0.15443 )
           atom   69  H     Mean Z*:        0.09755
      E*x (        0.14982       -0.01709        0.00965 )
      E*y (       -0.03462       -0.01159        0.03012 )
      E*z (        0.00774        0.05395        0.15443 )
           atom   70  H     Mean Z*:        0.09755
      E*x (        0.14982       -0.01709        0.00965 )
      E*y (       -0.03462       -0.01159        0.03012 )
      E*z (        0.00774        0.05395        0.15443 )
           atom   71  H     Mean Z*:        0.09755
      E*x (        0.00637       -0.04820       -0.03091 )
      E*y (       -0.06573        0.13186       -0.00670 )
      E*z (       -0.05059       -0.02028        0.15443 )
           atom   72  H     Mean Z*:        0.09755
      E*x (        0.00637       -0.04820       -0.03091 )
      E*y (       -0.06573        0.13186       -0.00670 )
      E*z (       -0.05059       -0.02028        0.15443 )
           atom   73  O     Mean Z*:       -1.56963
      E*x (       -1.77382       -0.41537       -1.20588 )
      E*y (       -0.35290       -0.97892       -0.11994 )
      E*z (       -1.33069       -0.26655       -1.95614 )
           atom   74  O     Mean Z*:       -1.56963
      E*x (       -1.77382       -0.41537       -1.20588 )
      E*y (       -0.35290       -0.97892       -0.11994 )
      E*z (       -1.33069       -0.26655       -1.95614 )
           atom   75  O     Mean Z*:       -1.56963
      E*x (       -1.51032        0.50504        0.70681 )
      E*y (        0.56750       -1.24242       -0.98435 )
      E*z (        0.89618       -1.01913       -1.95614 )
           atom   76  O     Mean Z*:       -1.56963
      E*x (       -1.51032        0.50504        0.70681 )
      E*y (        0.56750       -1.24242       -0.98435 )
      E*z (        0.89618       -1.01913       -1.95614 )
           atom   77  O     Mean Z*:       -1.56963
      E*x (       -0.84497       -0.18337        0.49907 )
      E*y (       -0.12090       -1.90776        1.10429 )
      E*z (        0.43450        1.28568       -1.95614 )
           atom   78  O     Mean Z*:       -1.56963
      E*x (       -0.84497       -0.18337        0.49907 )
      E*y (       -0.12090       -1.90776        1.10429 )
      E*z (        0.43450        1.28568       -1.95614 )
           atom   79  O     Mean Z*:       -1.61902
      E*x (       -1.51030       -0.69635       -0.63722 )
      E*y (       -0.76872       -1.38082       -1.02717 )
      E*z (       -0.88393       -1.07537       -1.96595 )
           atom   80  O     Mean Z*:       -1.61902
      E*x (       -1.51030       -0.69635       -0.63722 )
      E*y (       -0.76872       -1.38082       -1.02717 )
      E*z (       -0.88393       -1.07537       -1.96595 )
           atom   81  O     Mean Z*:       -1.61902
      E*x (       -2.04759        0.45852        1.20817 )
      E*y (        0.38615       -0.84354       -0.03826 )
      E*z (        1.37326       -0.22782       -1.96595 )
           atom   82  O     Mean Z*:       -1.61902
      E*x (       -2.04759        0.45852        1.20817 )
      E*y (        0.38615       -0.84354       -0.03826 )
      E*z (        1.37326       -0.22782       -1.96595 )
           atom   83  O     Mean Z*:       -1.61902
      E*x (       -0.77880        0.34638       -0.57095 )
      E*y (        0.27402       -2.11233        1.06543 )
      E*z (       -0.48933        1.30319       -1.96595 )
           atom   84  O     Mean Z*:       -1.61902
      E*x (       -0.77880        0.34638       -0.57095 )
      E*y (        0.27402       -2.11233        1.06543 )
      E*z (       -0.48933        1.30319       -1.96595 )
           atom   85  O     Mean Z*:       -1.65868
      E*x (       -2.05765       -1.17661       -0.88096 )
      E*y (       -1.24916       -1.90628       -0.50906 )
      E*z (       -0.75365       -0.37976       -1.01212 )
           atom   86  O     Mean Z*:       -1.65868
      E*x (       -2.05765       -1.17661       -0.88096 )
      E*y (       -1.24916       -1.90628       -0.50906 )
      E*z (       -0.75365       -0.37976       -1.01212 )
           atom   87  O     Mean Z*:       -1.65868
      E*x (       -2.99451        0.70826        0.88134 )
      E*y (        0.63571       -0.96942       -0.50840 )
      E*z (        0.70570       -0.46280       -1.01212 )
           atom   88  O     Mean Z*:       -1.65868
      E*x (       -2.99451        0.70826        0.88134 )
      E*y (        0.63571       -0.96942       -0.50840 )
      E*z (        0.70570       -0.46280       -1.01212 )
           atom   89  O     Mean Z*:       -1.65868
      E*x (       -0.89373        0.57717       -0.00038 )
      E*y (        0.50462       -3.07020        1.01746 )
      E*z (        0.04794        0.84256       -1.01212 )
           atom   90  O     Mean Z*:       -1.65868
      E*x (       -0.89373        0.57717       -0.00038 )
      E*y (        0.50462       -3.07020        1.01746 )
      E*z (        0.04794        0.84256       -1.01212 )
           atom   91  O     Mean Z*:       -1.61758
      E*x (       -2.86798       -0.67011       -0.84326 )
      E*y (       -0.62067       -0.97585       -0.51244 )
      E*z (       -0.67333       -0.45867       -1.00891 )
           atom   92  O     Mean Z*:       -1.61758
      E*x (       -2.86798       -0.67011       -0.84326 )
      E*y (       -0.62067       -0.97585       -0.51244 )
      E*z (       -0.67333       -0.45867       -1.00891 )
           atom   93  O     Mean Z*:       -1.61758
      E*x (       -2.00780        1.11729        0.86541 )
      E*y (        1.16673       -1.83602       -0.47406 )
      E*z (        0.73388       -0.35378       -1.00891 )
           atom   94  O     Mean Z*:       -1.61758
      E*x (       -2.00780        1.11729        0.86541 )
      E*y (        1.16673       -1.83602       -0.47406 )
      E*z (        0.73388       -0.35378       -1.00891 )
           atom   95  O     Mean Z*:       -1.61758
      E*x (       -0.88995       -0.52134       -0.02216 )
      E*y (       -0.47190       -2.95387        0.98650 )
      E*z (       -0.06055        0.81245       -1.00891 )
           atom   96  O     Mean Z*:       -1.61758
      E*x (       -0.88995       -0.52134       -0.02216 )
      E*y (       -0.47190       -2.95387        0.98650 )
      E*z (       -0.06055        0.81245       -1.00891 )
           atom   97  O     Mean Z*:       -2.05073
      E*x (       -2.87377        0.05727       -0.03182 )
      E*y (        0.04135       -1.37260        0.09263 )
      E*z (        0.00884        0.23696       -1.90582 )
           atom   98  O     Mean Z*:       -2.05073
      E*x (       -2.87377        0.05727       -0.03182 )
      E*y (        0.04135       -1.37260        0.09263 )
      E*z (        0.00884        0.23696       -1.90582 )
           atom   99  O     Mean Z*:       -2.05073
      E*x (       -1.70519        0.63333       -0.06431 )
      E*y (        0.61741       -2.54119       -0.07387 )
      E*z (       -0.20963       -0.11083       -1.90582 )
           atom  100  O     Mean Z*:       -2.05073
      E*x (       -1.70519        0.63333       -0.06431 )
      E*y (        0.61741       -2.54119       -0.07387 )
      E*z (       -0.20963       -0.11083       -1.90582 )
           atom  101  O     Mean Z*:       -2.05073
      E*x (       -1.79060       -0.66672        0.09613 )
      E*y (       -0.68264       -2.45577       -0.01876 )
      E*z (        0.20080       -0.12613       -1.90582 )
           atom  102  O     Mean Z*:       -2.05073
      E*x (       -1.79060       -0.66672        0.09613 )
      E*y (       -0.68264       -2.45577       -0.01876 )
      E*z (        0.20080       -0.12613       -1.90582 )
           atom  103  Zr    Mean Z*:        4.97614
      E*x (        5.76854       -0.05347       -0.10062 )
      E*y (        0.08558        4.39121       -0.07161 )
      E*z (        0.05851        0.22382        4.76867 )
           atom  104  Zr    Mean Z*:        4.97614
      E*x (        5.76854       -0.05347       -0.10062 )
      E*y (        0.08558        4.39121       -0.07161 )
      E*z (        0.05851        0.22382        4.76867 )
           atom  105  Zr    Mean Z*:        4.97614
      E*x (        4.74945       -0.67396        0.11233 )
      E*y (       -0.53490        5.41030       -0.05134 )
      E*z (       -0.22309       -0.06124        4.76867 )
           atom  106  Zr    Mean Z*:        4.97614
      E*x (        4.74945       -0.67396        0.11233 )
      E*y (       -0.53490        5.41030       -0.05134 )
      E*z (       -0.22309       -0.06124        4.76867 )
           atom  107  Zr    Mean Z*:        4.97614
      E*x (        4.72163        0.51885       -0.01171 )
      E*y (        0.65790        5.43811        0.12295 )
      E*z (        0.16458       -0.16258        4.76867 )
           atom  108  Zr    Mean Z*:        4.97614
      E*x (        4.72163        0.51885       -0.01171 )
      E*y (        0.65790        5.43811        0.12295 )
      E*z (        0.16458       -0.16258        4.76867 )

     INITIALIZATION:

     DIELECTRIC CONSTANT AND EFFECTIVE CHARGES:

                                        0.00s GPU  (     324 calls)

      General routines

      Additional routines
                                        0.00s GPU  (    2026 calls)
                                        0.00s GPU  (    2026 calls)

   This run was terminated on:   1:53:39  19Jun2025

   JOB DONE.