     Program PHONON v.7.3.1 starts on 14May2025 at 12: 0: 8

     Waiting for input...
     Reading input from standard input

     Reading xml data from directory:

     ./pwscf.save/

     R & G space division:  proc/nbgrp/npool/nimage =     256
     wavefunctions fft division:  task group distribution
                                  #TG    x Z-proc =       8     32
     Subspace diagonalization in iterative solution of the eigenvalue problem:
     one sub-group per band group will be used

     file H.pbe-kjpaw_psl.1.0.0.UPF: wavefunction(s)  1S renormalized
     file Zr.pbe-spn-kjpaw_psl.1.0.0.UPF: wavefunction(s)  4S 4P renormalized
     file C.pbe-n-kjpaw_psl.1.0.0.UPF: wavefunction(s)  2S 2P renormalized
     file O.pbe-n-kjpaw_psl.1.0.0.UPF: wavefunction(s)  2S 2P renormalized

     IMPORTANT: XC functional enforced from input :
     Exchange-correlation= PBE
                           (   1   4   3   4   0   0   0)
     Any further DFT definition will be discarded
     Please, verify this is what you really want

     Using Pencil Decomposition

     Check: negative core charge=   -0.000001

     negative rho (up, down):  5.983E-04 0.000E+00
     Reading collected, re-writing distributed wavefunctions in ./

     Number and degeneracy of irreps per q-point
       N         xq(1)         xq(2)         xq(3)   N irreps
       1   0.000000000   0.000000000   0.000000000     342
     No degeneracy

     Calculation of q =    0.0000000   0.0000000   0.0000000

     dielectric constant

     bravais-lattice index     =            0
     lattice parameter (alat)  =      28.0321  a.u.
     unit-cell volume          =   15575.9230 (a.u.)^3
     number of atoms/cell      =          114
     number of atomic types    =            4
     kinetic-energy cut-off    =      80.0000  Ry
     charge density cut-off    =     480.0000  Ry
     convergence threshold     =      1.0E-14
     beta                      =       0.7000
     number of iterations used =            4
     Exchange-correlation= PBE
                           (   1   4   3   4   0   0   0)

     celldm(1)=   28.03214  celldm(2)=    0.00000  celldm(3)=    0.00000
     celldm(4)=    0.00000  celldm(5)=    0.00000  celldm(6)=    0.00000

     crystal axes: (cart. coord. in units of alat)
               a(1) = (  1.0000  0.0000  0.0000 )
               a(2) = (  0.5000  0.8660  0.0000 )
               a(3) = (  0.5000  0.2887  0.8165 )

     reciprocal axes: (cart. coord. in units 2 pi/alat)
               b(1) = (  1.0000 -0.5774 -0.4082 )
               b(2) = (  0.0000  1.1547 -0.4082 )
               b(3) = (  0.0000  0.0000  1.2247 )

     Atoms inside the unit cell:

     Cartesian axes

     site n.  atom      mass           positions (alat units)
        1  Zr     91.2240   tau(    1) = (    1.00000    0.13903    0.09831  )
        2  Zr     91.2240   tau(    2) = (    1.00000    1.01567    0.71819  )
        3  Zr     91.2240   tau(    3) = (    0.62040    0.35819    0.71819  )
        4  Zr     91.2240   tau(    4) = (    1.37960    0.35819    0.71819  )
        5  Zr     91.2240   tau(    5) = (    0.62040    0.79651    0.09831  )
        6  Zr     91.2240   tau(    6) = (    1.37960    0.79651    0.09831  )
        7  O      15.9990   tau(    7) = (    0.13454    0.07768    0.05493  )
        8  O      15.9990   tau(    8) = (    0.90805    0.14108    0.21874  )
        9  O      15.9990   tau(    9) = (    0.90285    0.90445    0.75216  )
       10  O      15.9990   tau(   10) = (    1.09715    1.01062    0.60200  )
       11  O      15.9990   tau(   11) = (    1.09195    0.25325    0.06009  )
       12  O      15.9990   tau(   12) = (    0.76530    0.32967    0.75216  )
       13  O      15.9990   tau(   13) = (    1.32665    0.27658    0.60200  )
       14  O      15.9990   tau(   14) = (    0.57620    0.44485    0.60200  )
       15  O      15.9990   tau(   15) = (    0.67335    0.65977    0.06009  )
       16  O      15.9990   tau(   16) = (    1.42380    0.71586    0.21874  )
       17  O      15.9990   tau(   17) = (    0.66815    0.87512    0.21874  )
       18  O      15.9990   tau(   18) = (    1.23470    0.81903    0.06009  )
       19  O      15.9990   tau(   19) = (    1.33185    0.49794    0.75216  )
       20  O      15.9990   tau(   20) = (    1.23470    0.32967    0.75216  )
       21  O      15.9990   tau(   21) = (    0.57620    0.71586    0.21874  )
       22  O      15.9990   tau(   22) = (    0.76530    0.81903    0.06009  )
       23  O      15.9990   tau(   23) = (    1.42380    0.44485    0.60200  )
       24  O      15.9990   tau(   24) = (    0.67335    0.27658    0.60200  )
       25  O      15.9990   tau(   25) = (    1.09195    0.14108    0.21874  )
       26  O      15.9990   tau(   26) = (    0.66815    0.49794    0.75216  )
       27  O      15.9990   tau(   27) = (    1.09715    0.90445    0.75216  )
       28  O      15.9990   tau(   28) = (    1.32665    0.65977    0.06009  )
       29  O      15.9990   tau(   29) = (    0.90285    1.01062    0.60200  )
       30  O      15.9990   tau(   30) = (    1.33185    0.87512    0.21874  )
       31  O      15.9990   tau(   31) = (    0.90805    0.25325    0.06009  )
       32  O      15.9990   tau(   32) = (    0.50000    0.28868    0.65172  )
       33  O      15.9990   tau(   33) = (    0.50000    0.71067    0.05493  )
       34  O      15.9990   tau(   34) = (    0.86546    0.07768    0.05493  )
       35  O      15.9990   tau(   35) = (    1.90114    1.09762    0.77614  )
       36  O      15.9990   tau(   36) = (    1.09886    1.09762    0.77614  )
       37  O      15.9990   tau(   37) = (    1.50000    0.40283    0.77614  )
       38  O      15.9990   tau(   38) = (    1.50000    0.86603    0.12108  )
       39  C      12.0106   tau(   39) = (    1.64825    0.55492    0.81315  )
       40  C      12.0106   tau(   40) = (    0.82085    0.19789    0.37526  )
       41  C      12.0106   tau(   41) = (    0.80785    0.74244    0.74440  )
       42  C      12.0106   tau(   42) = (    1.19215    0.94931    0.45185  )
       43  C      12.0106   tau(   43) = (    1.17915    0.41976    0.06148  )
       44  C      12.0106   tau(   44) = (    0.95310    0.32840    0.74440  )
       45  C      12.0106   tau(   45) = (    1.22605    0.22496    0.45185  )
       46  C      12.0106   tau(   46) = (    0.58180    0.55778    0.45185  )
       47  C      12.0106   tau(   47) = (    0.77395    0.50100    0.06148  )
       48  C      12.0106   tau(   48) = (    1.41820    0.61193    0.37526  )
       49  C      12.0106   tau(   49) = (    0.76095    0.92223    0.37526  )
       50  C      12.0106   tau(   50) = (    1.04690    0.81129    0.06148  )
       51  C      12.0106   tau(   51) = (    1.23905    0.66121    0.74440  )
       52  C      12.0106   tau(   52) = (    1.04690    0.32840    0.74440  )
       53  C      12.0106   tau(   53) = (    0.58180    0.61193    0.37526  )
       54  C      12.0106   tau(   54) = (    0.95310    0.81129    0.06148  )
       55  C      12.0106   tau(   55) = (    1.41820    0.55778    0.45185  )
       56  C      12.0106   tau(   56) = (    0.77395    0.22496    0.45185  )
       57  C      12.0106   tau(   57) = (    1.17915    0.19789    0.37526  )
       58  C      12.0106   tau(   58) = (    0.76095    0.66121    0.74440  )
       59  C      12.0106   tau(   59) = (    1.19215    0.74244    0.74440  )
       60  C      12.0106   tau(   60) = (    1.22605    0.50100    0.06148  )
[...]
      100  H       1.0075   tau(  100) = (    0.64445    0.63356    0.34456  )
      101  H       1.0075   tau(  101) = (    0.91555    0.77518    0.11268  )
      102  H       1.0075   tau(  102) = (    1.35555    0.53604    0.48247  )
      103  H       1.0075   tau(  103) = (    0.78645    0.29009    0.48247  )
      104  H       1.0075   tau(  104) = (    1.12910    0.24133    0.34456  )
      105  H       1.0075   tau(  105) = (    0.77355    0.61058    0.69329  )
      106  H       1.0075   tau(  106) = (    1.14200    0.75685    0.69329  )
      107  H       1.0075   tau(  107) = (    1.21355    0.55157    0.11268  )
      108  H       1.0075   tau(  108) = (    0.85800    0.90592    0.48247  )
      109  H       1.0075   tau(  109) = (    1.22645    0.85716    0.34456  )
      110  H       1.0075   tau(  110) = (    0.87090    0.40530    0.11268  )
      111  H       1.0075   tau(  111) = (    0.50000    0.28868    0.58681  )
      112  H       1.0075   tau(  112) = (    0.50000    0.64947    0.07656  )
      113  H       1.0075   tau(  113) = (    0.18754    0.10828    0.07656  )
      114  H       1.0075   tau(  114) = (    0.81246    0.10828    0.07656  )

     Computing dynamical matrix for
                    q = (   0.0000000   0.0000000   0.0000000 )

      7 Sym.Ops. (with q -> -q+G )

     G cutoff = 9554.1934  (  10804 G-vectors)     FFT grid: (200,200,200)
     G cutoff = 6369.4623  (   5885 G-vectors)  smooth grid: (160,160,160)
     number of k points=     1
                       cart. coord. in units 2pi/alat
        k(    1) = (   0.0000000   0.0000000   0.0000000), wk =   2.0000000

     PseudoPot. # 1 for H  read from file:
     /home/mehlhorn/pseudos/UiO-66_pbe-spn-kjpaw/H.pbe-kjpaw_psl.1.0.0.UPF
     MD5 check sum: d81a744832360e4a8af0b0b5b123bc2a
     Pseudo is Projector augmented-wave, Zval =  1.0
     Generated using &quot;atomic&quot; code by A. Dal Corso  v.6.3MaX
     Shape of augmentation charge: PSQ
     Using radial grid of  929 points,  2 beta functions with:
                l(1) =   0
                l(2) =   0
     Q(r) pseudized with 0 coefficients

     PseudoPot. # 2 for Zr read from file:
     /home/mehlhorn/pseudos/UiO-66_pbe-spn-kjpaw/Zr.pbe-spn-kjpaw_psl.1.0.0.UPF
     MD5 check sum: 02112c41713a0468aff2bb39ef194e36
     Pseudo is Projector augmented-wave + core cor, Zval = 12.0
     Generated using &quot;atomic&quot; code by A. Dal Corso  v.6.2.2
     Shape of augmentation charge: PSQ
     Using radial grid of 1225 points,  6 beta functions with:
                l(1) =   0
                l(2) =   0
                l(3) =   1
                l(4) =   1
                l(5) =   2
                l(6) =   2
     Q(r) pseudized with 0 coefficients

     PseudoPot. # 3 for C  read from file:
     /home/mehlhorn/pseudos/UiO-66_pbe-spn-kjpaw/C.pbe-n-kjpaw_psl.1.0.0.UPF
     MD5 check sum: 5f16ad9a65e90284d1d834d4ab3b0f7d
     Pseudo is Projector augmented-wave + core cor, Zval =  4.0
     Generated using &quot;atomic&quot; code by A. Dal Corso  v.6.3
     Shape of augmentation charge: PSQ
     Using radial grid of 1073 points,  4 beta functions with:
                l(1) =   0
                l(2) =   0
                l(3) =   1
                l(4) =   1
     Q(r) pseudized with 0 coefficients

     PseudoPot. # 4 for O  read from file:
     /home/mehlhorn/pseudos/UiO-66_pbe-spn-kjpaw/O.pbe-n-kjpaw_psl.1.0.0.UPF
     MD5 check sum: e99d9cef9b487d1ca56f5b95ecd0fd7a
     Pseudo is Projector augmented-wave + core cor, Zval =  6.0
     Generated using &quot;atomic&quot; code by A. Dal Corso  v.6.3
     Shape of augmentation charge: PSQ
[...]
      E*y (       -0.05203       -0.09609        0.08921 )
      E*z (       -0.11518       -0.09088       -0.03707 )
           atom   44  C     Mean Z*:       -0.05705
      E*x (       -0.06634        0.05327       -0.05666 )
      E*y (       -0.09399       -0.07600       -0.05140 )
      E*z (        0.14306       -0.05579       -0.02882 )
           atom   45  C     Mean Z*:       -0.05704
      E*x (       -0.09678       -0.10917       -0.05258 )
      E*y (        0.03765       -0.00104        0.13238 )
      E*z (        0.04316       -0.04331       -0.07331 )
           atom   46  C     Mean Z*:       -0.05704
      E*x (        0.00599       -0.09698        0.14093 )
      E*y (        0.04984       -0.10382       -0.02065 )
      E*z (       -0.05909       -0.01572       -0.07331 )
           atom   47  C     Mean Z*:       -0.05705
      E*x (       -0.09679        0.08597        0.08540 )
      E*y (       -0.05324       -0.03730       -0.03050 )
      E*z (       -0.02111        0.14519       -0.03707 )
           atom   48  C     Mean Z*:       -0.05704
      E*x (        0.00600       -0.10054        0.13841 )
      E*y (        0.03910       -0.08812       -0.02127 )
      E*z (       -0.06669       -0.02620       -0.08898 )
           atom   49  C     Mean Z*:       -0.05704
      E*x (       -0.09120       -0.09522       -0.05079 )
      E*y (        0.04443        0.00907        0.13050 )
      E*z (        0.05604       -0.04465       -0.08898 )
           atom   50  C     Mean Z*:       -0.05705
      E*x (       -0.06634        0.03566       -0.06911 )
      E*y (       -0.10355       -0.06775       -0.05871 )
      E*z (        0.13630       -0.05431       -0.03707 )
           atom   51  C     Mean Z*:       -0.05705
      E*x (       -0.09121        0.07963        0.07284 )
      E*y (       -0.06764       -0.05112       -0.02337 )
      E*z (       -0.02321        0.15179       -0.02882 )
           atom   52  C     Mean Z*:       -0.05705
      E*x (       -0.06634       -0.05327        0.05666 )
      E*y (        0.09399       -0.07600       -0.05140 )
      E*z (       -0.14306       -0.05579       -0.02882 )
           atom   53  C     Mean Z*:       -0.05704
      E*x (        0.00600        0.10054       -0.13841 )
      E*y (       -0.03910       -0.08812       -0.02127 )
      E*z (        0.06669       -0.02620       -0.08898 )
           atom   54  C     Mean Z*:       -0.05705
      E*x (       -0.06634       -0.03566        0.06911 )
      E*y (        0.10355       -0.06775       -0.05871 )
      E*z (       -0.13630       -0.05431       -0.03707 )
           atom   55  C     Mean Z*:       -0.05704
      E*x (        0.00599        0.09698       -0.14093 )
      E*y (       -0.04984       -0.10382       -0.02065 )
      E*z (        0.05909       -0.01572       -0.07331 )
           atom   56  C     Mean Z*:       -0.05704
      E*x (       -0.09678        0.10917        0.05258 )
      E*y (       -0.03765       -0.00104        0.13238 )
      E*z (       -0.04316       -0.04331       -0.07331 )
           atom   57  C     Mean Z*:       -0.05704
      E*x (       -0.03799        0.01371        0.08763 )
      E*y (       -0.12594       -0.04414       -0.10924 )
      E*z (       -0.01065        0.07085       -0.08898 )
           atom   58  C     Mean Z*:       -0.05705
      E*x (       -0.09121       -0.07963       -0.07284 )
      E*y (        0.06764       -0.05112       -0.02337 )
      E*z (        0.02321        0.15179       -0.02882 )
           atom   59  C     Mean Z*:       -0.05705
      E*x (       -0.05595       -0.08799        0.01618 )
      E*y (        0.05927       -0.08638        0.07477 )
      E*z (        0.11984       -0.09600       -0.02882 )
           atom   60  C     Mean Z*:       -0.05705
      E*x (       -0.09679       -0.08597       -0.08540 )
      E*y (        0.05324       -0.03730       -0.03050 )
      E*z (        0.02111        0.14519       -0.03707 )
           atom   61  C     Mean Z*:       -0.05704
      E*x (       -0.05595        0.01407        0.08835 )
      E*y (       -0.13275       -0.04188       -0.11172 )
      E*z (       -0.01593        0.05904       -0.07331 )
           atom   62  C     Mean Z*:       -0.05704
      E*x (       -0.09120        0.09522        0.05079 )
      E*y (       -0.04443        0.00907        0.13050 )
      E*z (       -0.05604       -0.04465       -0.08898 )
           atom   63  C     Mean Z*:       -0.05705
      E*x (       -0.03800       -0.08718        0.01629 )
      E*y (        0.05203       -0.09609        0.08921 )
      E*z (        0.11518       -0.09088       -0.03707 )
           atom   64  C     Mean Z*:        2.02379
      E*x (        1.63574        0.30136       -1.43189 )
      E*y (        0.30136        1.98372        0.82670 )
      E*z (       -1.47290        0.85038        2.45192 )
           atom   65  C     Mean Z*:        2.02380
      E*x (        1.63575        1.24955       -0.76143 )
      E*y (        1.28821        2.92696        0.51690 )
      E*z (       -0.77509        0.49322        1.50868 )
           atom   66  C     Mean Z*:        2.02379
      E*x (        1.50527        0.37668       -1.41963 )
      E*y (        0.37668        1.94022        0.81962 )
      E*z (       -1.37862        0.79595        2.62588 )
           atom   67  C     Mean Z*:        2.02379
      E*x (        2.15771       -0.00000       -0.00000 )
      E*y (       -0.00000        1.46175       -1.65341 )
      E*z (       -0.00000       -1.70076        2.45192 )
           atom   68  C     Mean Z*:        2.02380
      E*x (        1.50528       -1.21288        0.82836 )
      E*y (       -1.17422        3.05744        0.40097 )
      E*z (        0.81468        0.42464        1.50868 )
           atom   69  C     Mean Z*:        2.02380
      E*x (        3.70304       -0.09466       -0.06693 )
      E*y (       -0.05600        0.85967       -0.91787 )
      E*z (       -0.03960       -0.91786        1.50868 )
           atom   70  C     Mean Z*:        2.02379
      E*x (        1.50527       -0.37668        1.41963 )
      E*y (       -0.37668        1.94022        0.81962 )
      E*z (        1.37862        0.79595        2.62588 )
           atom   71  C     Mean Z*:        2.02380
      E*x (        3.70304        0.09466        0.06693 )
      E*y (        0.05600        0.85967       -0.91787 )
      E*z (        0.03960       -0.91786        1.50868 )
           atom   72  C     Mean Z*:        2.02380
      E*x (        1.63575       -1.24955        0.76143 )
      E*y (       -1.28821        2.92696        0.51690 )
      E*z (        0.77509        0.49322        1.50868 )
           atom   73  C     Mean Z*:        2.02379
      E*x (        2.15770       -0.00000       -0.00000 )
      E*y (        0.00000        1.28780       -1.63925 )
      E*z (        0.00000       -1.59190        2.62588 )
           atom   74  C     Mean Z*:        2.02379
      E*x (        1.63574       -0.30136        1.43189 )
      E*y (       -0.30136        1.98372        0.82670 )
      E*z (        1.47290        0.85038        2.45192 )
           atom   75  C     Mean Z*:       -0.36130
      E*x (       -1.07165       -0.01882       -0.01331 )
      E*y (       -0.00619       -0.00235        0.01067 )
      E*z (       -0.00438        0.01067       -0.00990 )
           atom   76  C     Mean Z*:       -0.36127
      E*x (       -0.01743       -0.00000       -0.00000 )
      E*y (       -0.00000       -0.33928        0.51024 )
      E*z (       -0.00000        0.49477       -0.72709 )
           atom   77  C     Mean Z*:       -0.36130
      E*x (       -1.07165        0.01882        0.01331 )
      E*y (        0.00619       -0.00235        0.01067 )
      E*z (        0.00438        0.01067       -0.00990 )
           atom   78  C     Mean Z*:       -0.36129
      E*x (       -0.01744       -0.00000        0.00000 )
      E*y (        0.00000       -0.36819        0.50499 )
      E*z (       -0.00000        0.52046       -0.69825 )
           atom   79  C     Mean Z*:       -0.36129
      E*x (       -0.28050        0.15188        0.43733 )
      E*y (        0.15188       -0.10513       -0.25249 )
      E*z (        0.45073       -0.26023       -0.69825 )
           atom   80  C     Mean Z*:       -0.36127
      E*x (       -0.25882       -0.13937       -0.44188 )
      E*y (       -0.13937       -0.09789       -0.25512 )
      E*z (       -0.42848       -0.24738       -0.72709 )
           atom   81  C     Mean Z*:       -0.36130
      E*x (       -0.25885       -0.46308        0.01589 )
      E*y (       -0.45045       -0.81516        0.00619 )
      E*z (        0.01143       -0.00155       -0.00990 )
           atom   82  C     Mean Z*:       -0.36130
      E*x (       -0.28051        0.46296       -0.00258 )
      E*y (        0.47559       -0.79350       -0.01686 )
      E*z (       -0.00706       -0.00913       -0.00990 )
           atom   83  C     Mean Z*:       -0.36130
      E*x (       -0.28051       -0.46296        0.00258 )
      E*y (       -0.47559       -0.79350       -0.01686 )
      E*z (        0.00706       -0.00913       -0.00990 )
           atom   84  C     Mean Z*:       -0.36129
      E*x (       -0.28050       -0.15188       -0.43733 )
      E*y (       -0.15188       -0.10513       -0.25249 )
      E*z (       -0.45073       -0.26023       -0.69825 )
           atom   85  C     Mean Z*:       -0.36127
      E*x (       -0.25882        0.13937        0.44188 )
      E*y (        0.13937       -0.09789       -0.25512 )
      E*z (        0.42848       -0.24738       -0.72709 )
           atom   86  C     Mean Z*:       -0.36130
      E*x (       -0.25885        0.46308       -0.01589 )
      E*y (        0.45045       -0.81516        0.00619 )
      E*z (       -0.01143       -0.00155       -0.00990 )
           atom   87  H     Mean Z*:        0.10078
      E*x (        0.08083       -0.09478        0.03233 )
      E*y (       -0.07760        0.07320        0.03250 )
      E*z (        0.04271        0.05490        0.14830 )
           atom   88  H     Mean Z*:        0.10077
      E*x (        0.08206        0.00394        0.10037 )
      E*y (       -0.01518        0.16582        0.02140 )
      E*z (        0.08861        0.00137        0.05444 )
           atom   89  H     Mean Z*:        0.10077
      E*x (        0.08206       -0.09594        0.02974 )
      E*y (       -0.07849        0.07397        0.03385 )
      E*z (        0.04385        0.05387        0.14629 )
           atom   90  H     Mean Z*:        0.10077
      E*x (        0.08083        0.00111        0.10014 )
      E*y (       -0.01440        0.16741        0.02159 )
      E*z (        0.08740       -0.00082        0.05407 )
           atom   91  H     Mean Z*:        0.10077
      E*x (        0.14002        0.04864       -0.06871 )
      E*y (        0.02951        0.10787        0.07622 )
      E*z (       -0.04550        0.07606        0.05444 )
           atom   92  H     Mean Z*:        0.10077
      E*x (        0.15152        0.03839        0.01445 )
      E*y (        0.05584        0.00451       -0.04268 )
      E*z (        0.02473       -0.06491        0.14629 )
           atom   93  H     Mean Z*:        0.10077
      E*x (        0.00046        0.03137       -0.04418 )
      E*y (        0.04883        0.15557        0.00883 )
      E*z (       -0.06858        0.01104        0.14629 )
           atom   94  H     Mean Z*:        0.10077
      E*x (        0.15152       -0.02641       -0.03137 )
      E*y (       -0.04193        0.09672       -0.09751 )
      E*z (       -0.04440       -0.07528        0.05407 )
           atom   95  H     Mean Z*:        0.10078
      E*x (        0.00047        0.03120       -0.04431 )
      E*y (        0.04838        0.15357        0.01175 )
      E*z (       -0.06890        0.00954        0.14830 )
           atom   96  H     Mean Z*:        0.10078
      E*x (        0.14975        0.03781        0.01198 )
      E*y (        0.05499        0.00428       -0.04424 )
      E*z (        0.02619       -0.06444        0.14830 )
           atom   97  H     Mean Z*:        0.10077
      E*x (        0.14002        0.04857       -0.06876 )
      E*y (        0.03306        0.10823        0.07593 )
      E*z (       -0.04299        0.07610        0.05407 )
           atom   98  H     Mean Z*:        0.10077
      E*x (        0.14975       -0.02390       -0.03165 )
      E*y (       -0.04302        0.09814       -0.09762 )
      E*z (       -0.04312       -0.07743        0.05444 )
           atom   99  H     Mean Z*:        0.10077
      E*x (        0.14002       -0.04864        0.06871 )
      E*y (       -0.02951        0.10787        0.07622 )
      E*z (        0.04550        0.07606        0.05444 )
           atom  100  H     Mean Z*:        0.10078
      E*x (        0.00047       -0.03120        0.04431 )
      E*y (       -0.04838        0.15357        0.01175 )
      E*z (        0.06890        0.00954        0.14830 )
           atom  101  H     Mean Z*:        0.10077
      E*x (        0.14002       -0.04857        0.06876 )
      E*y (       -0.03306        0.10823        0.07593 )
      E*z (        0.04299        0.07610        0.05407 )
           atom  102  H     Mean Z*:        0.10077
      E*x (        0.00046       -0.03137        0.04418 )
      E*y (       -0.04883        0.15557        0.00883 )
      E*z (        0.06858        0.01104        0.14629 )
           atom  103  H     Mean Z*:        0.10077
      E*x (        0.15152       -0.03839       -0.01445 )
      E*y (       -0.05584        0.00451       -0.04268 )
      E*z (       -0.02473       -0.06491        0.14629 )
           atom  104  H     Mean Z*:        0.10078
      E*x (        0.08083        0.09478       -0.03233 )
      E*y (        0.07760        0.07320        0.03250 )
      E*z (       -0.04271        0.05490        0.14830 )
           atom  105  H     Mean Z*:        0.10077
      E*x (        0.14975        0.02390        0.03165 )
      E*y (        0.04302        0.09814       -0.09762 )
      E*z (        0.04312       -0.07743        0.05444 )
           atom  106  H     Mean Z*:        0.10077
      E*x (        0.08206       -0.00394       -0.10037 )
      E*y (        0.01518        0.16582        0.02140 )
      E*z (       -0.08861        0.00137        0.05444 )
           atom  107  H     Mean Z*:        0.10077
      E*x (        0.15152        0.02641        0.03137 )
      E*y (        0.04193        0.09672       -0.09751 )
      E*z (        0.04440       -0.07528        0.05407 )
           atom  108  H     Mean Z*:        0.10077
      E*x (        0.08206        0.09594       -0.02974 )
      E*y (        0.07849        0.07397        0.03385 )
      E*z (       -0.04385        0.05387        0.14629 )
           atom  109  H     Mean Z*:        0.10078
      E*x (        0.14975       -0.03781       -0.01198 )
      E*y (       -0.05499        0.00428       -0.04424 )
      E*z (       -0.02619       -0.06444        0.14830 )
           atom  110  H     Mean Z*:        0.10077
      E*x (        0.08083       -0.00111       -0.10014 )
      E*y (        0.01440        0.16741        0.02159 )
      E*z (       -0.08740       -0.00082        0.05407 )
           atom  111  H     Mean Z*:        0.28262
      E*x (        0.34802        0.00000       -0.00000 )
      E*y (        0.00000        0.34802       -0.00000 )
      E*z (       -0.00000        0.00000        0.15181 )
           atom  112  H     Mean Z*:        0.28262
      E*x (        0.34803       -0.00000       -0.00000 )
      E*y (        0.00000        0.17361        0.06167 )
      E*z (       -0.00000        0.06167        0.32622 )
           atom  113  H     Mean Z*:        0.28262
      E*x (        0.21722       -0.07552       -0.05340 )
      E*y (       -0.07552        0.30442       -0.03083 )
      E*z (       -0.05340       -0.03083        0.32622 )
           atom  114  H     Mean Z*:        0.28262
      E*x (        0.21722        0.07552        0.05340 )
      E*y (        0.07552        0.30442       -0.03083 )
      E*z (        0.05340       -0.03083        0.32622 )

     INITIALIZATION:

     DIELECTRIC CONSTANT AND EFFECTIVE CHARGES:

                                        0.00s GPU  (     342 calls)

      General routines

      Additional routines
                                        0.00s GPU  (    1996 calls)
                                        0.00s GPU  (    1996 calls)

   This run was terminated on:  16:40:25  14May2025

   JOB DONE.