     Program PHONON v.7.3.1 starts on 23Jul2025 at  8:11:35

     Waiting for input...
     Reading input from standard input

     Reading xml data from directory:

     ./pwscf.save/

     R & G space division:  proc/nbgrp/npool/nimage =     256
     wavefunctions fft division:  task group distribution
                                  #TG    x Z-proc =       8     32
     Subspace diagonalization in iterative solution of the eigenvalue problem:
     one sub-group per band group will be used

     file H.pbe-kjpaw_psl.1.0.0.UPF: wavefunction(s)  1S renormalized
     file Zr.pbe-spn-kjpaw_psl.1.0.0.UPF: wavefunction(s)  4S 4P renormalized
     file C.pbe-n-kjpaw_psl.1.0.0.UPF: wavefunction(s)  2S 2P renormalized
     file O.pbe-n-kjpaw_psl.1.0.0.UPF: wavefunction(s)  2S 2P renormalized

     IMPORTANT: XC functional enforced from input :
     Exchange-correlation= PBE
                           (   1   4   3   4   0   0   0)
     Any further DFT definition will be discarded
     Please, verify this is what you really want

     Using Pencil Decomposition

     negative rho (up, down):  3.881E-05 0.000E+00
     Reading collected, re-writing distributed wavefunctions in ./

     Dynamical matrices for ( 1, 1, 1)  uniform grid of q-points
     (   1 q-points):
       N         xq(1)         xq(2)         xq(3)
       1   0.000000000   0.000000000   0.000000000

     Number and degeneracy of irreps per q-point
       N         xq(1)         xq(2)         xq(3)   N irreps
Eigenvectors exchange needed   45  265
Eigenvectors exchange needed   45  319
Eigenvectors exchange needed   46  319
Eigenvectors exchange needed   55  109
Eigenvectors exchange needed   57  111
Eigenvectors exchange needed   59  113
Eigenvectors exchange needed   61  115
Eigenvectors exchange needed   63  117
Eigenvectors exchange needed   65  119
Eigenvectors exchange needed   67  121
Eigenvectors exchange needed   69  123
Eigenvectors exchange needed   71  125
Eigenvectors exchange needed   73  127
Eigenvectors exchange needed   75  129
Eigenvectors exchange needed   77  131
Eigenvectors exchange needed   79  133
Eigenvectors exchange needed   81  135
Eigenvectors exchange needed   83  137
Eigenvectors exchange needed   85  139
Eigenvectors exchange needed   87  141
Eigenvectors exchange needed   89  143
Eigenvectors exchange needed   91  145
Eigenvectors exchange needed   93  147
Eigenvectors exchange needed   95  149
Eigenvectors exchange needed   97  151
Eigenvectors exchange needed   99  153
Eigenvectors exchange needed  101  155
Eigenvectors exchange needed  103  157
Eigenvectors exchange needed  105  159
Eigenvectors exchange needed  107  161
Eigenvectors exchange needed  109  110
Eigenvectors exchange needed  111  112
Eigenvectors exchange needed  113  114
Eigenvectors exchange needed  115  116
Eigenvectors exchange needed  117  118
Eigenvectors exchange needed  119  120
Eigenvectors exchange needed  121  122
Eigenvectors exchange needed  123  124
Eigenvectors exchange needed  125  126
Eigenvectors exchange needed  127  128
Eigenvectors exchange needed  129  130
Eigenvectors exchange needed  131  132
Eigenvectors exchange needed  133  134
Eigenvectors exchange needed  135  136
Eigenvectors exchange needed  137  138
Eigenvectors exchange needed  139  140
Eigenvectors exchange needed  141  142
Eigenvectors exchange needed  143  144
Eigenvectors exchange needed  145  146
Eigenvectors exchange needed  147  148
Eigenvectors exchange needed  149  150
Eigenvectors exchange needed  151  152
Eigenvectors exchange needed  153  154
Eigenvectors exchange needed  155  156
Eigenvectors exchange needed  157  158
Eigenvectors exchange needed  159  160
Eigenvectors exchange needed  161  162
Eigenvectors exchange needed  173  227
Eigenvectors exchange needed  173  281
Eigenvectors exchange needed  174  281
[...]
Eigenvectors exchange needed  292  293
Eigenvectors exchange needed  294  295
Eigenvectors exchange needed  296  297
Eigenvectors exchange needed  298  299
Eigenvectors exchange needed  300  301
Eigenvectors exchange needed  302  303
Eigenvectors exchange needed  304  305
Eigenvectors exchange needed  306  307
Eigenvectors exchange needed  308  309
Eigenvectors exchange needed  310  311
Eigenvectors exchange needed  312  313
Eigenvectors exchange needed  314  315
Eigenvectors exchange needed  316  317
Eigenvectors exchange needed  320  321
Eigenvectors exchange needed  322  323
       1   0.000000000   0.000000000   0.000000000     213
        1   1   1   1   1   1   1   1   1   1   1   1   1   1   1   1   1   1
   1   1   1   1   1   1   1   1   1   1   1   1   1   1   1   1   1   1
   1   1   1   1   1   1   1   1   3   1   1   1   1   1   1   1   2   2
   2   2   2   2   2   2   2   2   2   2   2   2   2   2   2   2   2   2
   2   2   2   2   2   2   2   2   2   2   2   2   2   2   2   2   2   2
   2   2   2   2   2   2   2   2   2   2   2   2   2   2   2   2   1   1
   1   1   1   1   1   1   1   1   3   1   1   1   1   1   1   1   1   1
   1   1   1   1   1   1   1   1   1   1   1   1   1   1   1   1   1   1
   2   1   1   1   1   1   1   1   1   1   1   1   1   2   2   2   2   2
   1   2   2   2   2   2   2   2   2   2   2   2   2   2   2   2   2   2
   2   2   2   2   2   2   2   2   2   2   2   2   2   2   2   2   2   2
   2   2   2   2   2   2   2   2   2   2   1   1   2   2   1

     Saving dvscf to file. Distribute only q points, not irreducible representations.

     Calculation of q =    0.0000000   0.0000000   0.0000000

     bravais-lattice index     =            5
     lattice parameter (alat)  =      27.5251  a.u.
     unit-cell volume          =   15298.4507 (a.u.)^3
     number of atoms/cell      =          108
     number of atomic types    =            4
     kinetic-energy cut-off    =     150.0000  Ry
     charge density cut-off    =     900.0000  Ry
     convergence threshold     =      1.0E-14
     beta                      =       0.7000
     number of iterations used =            4
     Exchange-correlation= PBE
                           (   1   4   3   4   0   0   0)

     celldm(1)=   27.52505  celldm(2)=    0.00000  celldm(3)=    0.00000
     celldm(4)=    0.47453  celldm(5)=    0.00000  celldm(6)=    0.00000

     crystal axes: (cart. coord. in units of alat)
               a(1) = (  0.5126 -0.2959  0.8060 )
               a(2) = (  0.0000  0.5919  0.8060 )
               a(3) = ( -0.5126 -0.2959  0.8060 )

     reciprocal axes: (cart. coord. in units 2 pi/alat)
               b(1) = (  0.9755 -0.5632  0.4135 )
               b(2) = (  0.0000  1.1264  0.4135 )
               b(3) = ( -0.9755 -0.5632  0.4135 )

     Atoms inside the unit cell:

     Cartesian axes

     site n.  atom      mass           positions (alat units)
        1  C      12.0106   tau(    1) = (   -0.15996   -0.26999    1.21169  )
        2  C      12.0106   tau(    2) = (    0.15996    0.26999    1.20640  )
        3  C      12.0106   tau(    3) = (    0.31380   -0.00354    1.21169  )
        4  C      12.0106   tau(    4) = (   -0.31380    0.00354    1.20640  )
        5  C      12.0106   tau(    5) = (   -0.15384    0.27353    1.21169  )
        6  C      12.0106   tau(    6) = (    0.15384   -0.27353    1.20640  )
        7  C      12.0106   tau(    7) = (   -0.14553    0.09097    0.96110  )
        8  C      12.0106   tau(    8) = (    0.14553   -0.09097    1.45699  )
        9  C      12.0106   tau(    9) = (   -0.00601   -0.17152    0.96110  )
       10  C      12.0106   tau(   10) = (    0.00601    0.17152    1.45699  )
       11  C      12.0106   tau(   11) = (    0.15155    0.08055    0.96110  )
       12  C      12.0106   tau(   12) = (   -0.15155   -0.08055    1.45699  )
       13  C      12.0106   tau(   13) = (    0.20330   -0.12041    1.53669  )
       14  C      12.0106   tau(   14) = (   -0.20330    0.12041    0.88140  )
       15  C      12.0106   tau(   15) = (    0.00263    0.23627    1.53669  )
       16  C      12.0106   tau(   16) = (   -0.00263   -0.23627    0.88140  )
       17  C      12.0106   tau(   17) = (   -0.20593   -0.11586    1.53669  )
       18  C      12.0106   tau(   18) = (    0.20593    0.11586    0.88140  )
       19  C      12.0106   tau(   19) = (    0.20997    0.35965    1.20750  )
       20  C      12.0106   tau(   20) = (   -0.20997   -0.35965    1.21059  )
       21  C      12.0106   tau(   21) = (   -0.41646    0.00202    1.20750  )
       22  C      12.0106   tau(   22) = (    0.41646   -0.00202    1.21059  )
       23  C      12.0106   tau(   23) = (    0.20648   -0.36167    1.20750  )
       24  C      12.0106   tau(   24) = (   -0.20648    0.36167    1.21059  )
       25  C      12.0106   tau(   25) = (    0.20012   -0.21165    1.56745  )
       26  C      12.0106   tau(   26) = (   -0.20012    0.21165    0.85064  )
       27  C      12.0106   tau(   27) = (    0.08324    0.27913    1.56745  )
       28  C      12.0106   tau(   28) = (   -0.08324   -0.27913    0.85064  )
       29  C      12.0106   tau(   29) = (   -0.28335   -0.06748    1.56745  )
       30  C      12.0106   tau(   30) = (    0.28335    0.06748    0.85064  )
       31  C      12.0106   tau(   31) = (    0.08064   -0.25344    0.83618  )
       32  C      12.0106   tau(   32) = (   -0.08064    0.25344    1.58191  )
       33  C      12.0106   tau(   33) = (    0.17916    0.19656    0.83618  )
       34  C      12.0106   tau(   34) = (   -0.17916   -0.19656    1.58191  )
       35  C      12.0106   tau(   35) = (   -0.25981    0.05688    0.83618  )
       36  C      12.0106   tau(   36) = (    0.25981   -0.05688    1.58191  )
       37  C      12.0106   tau(   37) = (    0.18543    0.42955    1.14593  )
       38  C      12.0106   tau(   38) = (   -0.18543   -0.42955    1.27216  )
       39  C      12.0106   tau(   39) = (   -0.46472   -0.05419    1.14593  )
       40  C      12.0106   tau(   40) = (    0.46472    0.05419    1.27216  )
       41  C      12.0106   tau(   41) = (    0.27929   -0.37536    1.14593  )
       42  C      12.0106   tau(   42) = (   -0.27929    0.37536    1.27216  )
       43  C      12.0106   tau(   43) = (   -0.46499    0.05618    1.27064  )
       44  C      12.0106   tau(   44) = (    0.46499   -0.05618    1.14745  )
       45  C      12.0106   tau(   45) = (    0.18384   -0.43079    1.27064  )
       46  C      12.0106   tau(   46) = (   -0.18384    0.43079    1.14745  )
       47  C      12.0106   tau(   47) = (    0.28115    0.37461    1.27064  )
       48  C      12.0106   tau(   48) = (   -0.28115   -0.37461    1.14745  )
       49  H       1.0075   tau(   49) = (    0.29623   -0.32112    1.09733  )
       50  H       1.0075   tau(   50) = (   -0.29623    0.32112    1.32076  )
       51  H       1.0075   tau(   51) = (    0.12998    0.41711    1.09733  )
       52  H       1.0075   tau(   52) = (   -0.12998   -0.41711    1.32076  )
       53  H       1.0075   tau(   53) = (   -0.42621   -0.09599    1.09733  )
       54  H       1.0075   tau(   54) = (    0.42621    0.09599    1.32076  )
       55  H       1.0075   tau(   55) = (    0.12720   -0.41926    1.31809  )
       56  H       1.0075   tau(   56) = (   -0.12720    0.41926    1.10000  )
[...]
     freq (  89-  89) =        326.5  [cm-1]   --> A_g             R
     freq (  90-  90) =        343.3  [cm-1]   --> E_g             R
     freq (  91-  91) =        343.3  [cm-1]   --> E_g*            R
     freq (  92-  92) =        362.6  [cm-1]   --> E_g             R
     freq (  93-  93) =        362.6  [cm-1]   --> E_g*            R
     freq (  94-  94) =        385.8  [cm-1]   --> A_g             R
     freq (  95-  95) =        392.6  [cm-1]   --> E_u             I
     freq (  96-  96) =        392.6  [cm-1]   --> E_u*            I
     freq (  97-  97) =        392.8  [cm-1]   --> E_g             R
     freq (  98-  98) =        392.8  [cm-1]   --> E_g*            R
     freq (  99-  99) =        401.4  [cm-1]   --> E_u             I
     freq ( 100- 100) =        401.4  [cm-1]   --> E_u*            I
     freq ( 101- 101) =        403.1  [cm-1]   --> A_u             I
     freq ( 102- 102) =        404.6  [cm-1]   --> A_u             I
     freq ( 103- 103) =        408.5  [cm-1]   --> E_u             I
     freq ( 104- 104) =        408.5  [cm-1]   --> E_u*            I
     freq ( 105- 105) =        421.5  [cm-1]   --> A_g             R
     freq ( 106- 106) =        436.8  [cm-1]   --> E_g             R
     freq ( 107- 107) =        436.8  [cm-1]   --> E_g*            R
     freq ( 108- 108) =        444.5  [cm-1]   --> A_g             R
     freq ( 109- 109) =        452.5  [cm-1]   --> E_g             R
     freq ( 110- 110) =        452.5  [cm-1]   --> E_g*            R
     freq ( 111- 111) =        452.6  [cm-1]   --> A_u             I
     freq ( 112- 112) =        454.4  [cm-1]   --> E_u             I
     freq ( 113- 113) =        454.4  [cm-1]   --> E_u*            I
     freq ( 114- 114) =        459.4  [cm-1]   --> E_u             I
     freq ( 115- 115) =        459.4  [cm-1]   --> E_u*            I
     freq ( 116- 116) =        465.0  [cm-1]   --> E_u             I
     freq ( 117- 117) =        465.0  [cm-1]   --> E_u*            I
     freq ( 118- 118) =        465.2  [cm-1]   --> A_u             I
     freq ( 119- 119) =        467.5  [cm-1]   --> A_u             I
     freq ( 120- 120) =        491.7  [cm-1]   --> A_g             R
     freq ( 121- 121) =        517.5  [cm-1]   --> A_u             I
     freq ( 122- 122) =        522.5  [cm-1]   --> E_u             I
     freq ( 123- 123) =        522.5  [cm-1]   --> E_u*            I
     freq ( 124- 124) =        523.1  [cm-1]   --> A_u             I
     freq ( 125- 125) =        535.0  [cm-1]   --> E_u             I
     freq ( 126- 126) =        535.0  [cm-1]   --> E_u*            I
     freq ( 127- 127) =        545.0  [cm-1]   --> E_g             R
     freq ( 128- 128) =        545.0  [cm-1]   --> E_g*            R
     freq ( 129- 129) =        548.1  [cm-1]   --> E_u             I
     freq ( 130- 130) =        548.1  [cm-1]   --> E_u*            I
     freq ( 131- 131) =        552.3  [cm-1]   --> E_g             R
     freq ( 132- 132) =        552.3  [cm-1]   --> E_g*            R
     freq ( 133- 133) =        553.7  [cm-1]   --> A_u             I
     freq ( 134- 134) =        556.8  [cm-1]   --> A_g             R
     freq ( 135- 135) =        559.0  [cm-1]   --> A_g             R
     freq ( 136- 136) =        568.3  [cm-1]   --> A_g             R
     freq ( 137- 137) =        578.4  [cm-1]   --> E_u             I
     freq ( 138- 138) =        578.4  [cm-1]   --> E_u*            I
     freq ( 139- 139) =        595.4  [cm-1]   --> E_g             R
     freq ( 140- 140) =        595.4  [cm-1]   --> E_g*            R
     freq ( 141- 141) =        595.5  [cm-1]   --> A_u             I
     freq ( 142- 142) =        603.8  [cm-1]   --> A_g             R
     freq ( 143- 143) =        612.3  [cm-1]   --> A_u             I
     freq ( 144- 144) =        616.6  [cm-1]   --> A_g             R
     freq ( 145- 145) =        623.1  [cm-1]   --> E_g             R
     freq ( 146- 146) =        623.1  [cm-1]   --> E_g*            R
     freq ( 147- 147) =        660.3  [cm-1]   --> E_u             I
     freq ( 148- 148) =        660.3  [cm-1]   --> E_u*            I
     freq ( 149- 149) =        665.5  [cm-1]   --> E_g             R
     freq ( 150- 150) =        665.5  [cm-1]   --> E_g*            R
     freq ( 151- 151) =        671.3  [cm-1]   --> E_g             R
     freq ( 152- 152) =        671.3  [cm-1]   --> E_g*            R
     freq ( 153- 153) =        674.2  [cm-1]   --> A_g             R
     freq ( 154- 154) =        676.6  [cm-1]   --> A_g             R
     freq ( 155- 155) =        679.5  [cm-1]   --> E_g             R
     freq ( 156- 156) =        679.5  [cm-1]   --> E_g*            R
     freq ( 157- 157) =        684.3  [cm-1]   --> E_g             R
     freq ( 158- 158) =        684.3  [cm-1]   --> E_g*            R
     freq ( 159- 159) =        685.4  [cm-1]   --> A_g             R
     freq ( 160- 160) =        693.9  [cm-1]   --> A_g             R
     freq ( 161- 161) =        699.2  [cm-1]   --> E_g             R
     freq ( 162- 162) =        699.2  [cm-1]   --> E_g*            R
     freq ( 163- 163) =        717.1  [cm-1]   --> E_u             I
     freq ( 164- 164) =        717.1  [cm-1]   --> E_u*            I
     freq ( 165- 165) =        722.2  [cm-1]   --> A_u             I
     freq ( 166- 166) =        722.8  [cm-1]   --> E_u             I
     freq ( 167- 167) =        722.8  [cm-1]   --> E_u*            I
     freq ( 168- 168) =        729.4  [cm-1]   --> A_u             I
     freq ( 169- 169) =        769.0  [cm-1]   --> E_u             I
     freq ( 170- 170) =        769.0  [cm-1]   --> E_u*            I
     freq ( 171- 171) =        780.8  [cm-1]   --> E_u             I
     freq ( 172- 172) =        780.8  [cm-1]   --> E_u*            I
     freq ( 173- 173) =        792.3  [cm-1]   --> E_g             R
     freq ( 174- 174) =        792.3  [cm-1]   --> E_g*            R
     freq ( 175- 175) =        792.7  [cm-1]   --> A_g             R
     freq ( 176- 176) =        793.6  [cm-1]   --> A_u             I
     freq ( 177- 177) =        794.7  [cm-1]   --> E_g             R
     freq ( 178- 178) =        794.7  [cm-1]   --> E_g*            R
     freq ( 179- 179) =        795.9  [cm-1]   --> A_g             R
     freq ( 180- 180) =        812.0  [cm-1]   --> A_u             I
     freq ( 181- 181) =        827.1  [cm-1]   --> E_g             R
     freq ( 182- 182) =        827.1  [cm-1]   --> E_g*            R
     freq ( 183- 183) =        830.3  [cm-1]   --> E_g             R
     freq ( 184- 184) =        830.3  [cm-1]   --> E_g*            R
     freq ( 185- 185) =        837.1  [cm-1]   --> A_g             R
     freq ( 186- 186) =        837.8  [cm-1]   --> E_g             R
     freq ( 187- 187) =        837.8  [cm-1]   --> E_g*            R
     freq ( 188- 188) =        840.0  [cm-1]   --> A_g             R
     freq ( 189- 189) =        847.0  [cm-1]   --> A_g             R
     freq ( 190- 190) =        860.0  [cm-1]   --> A_g             R
     freq ( 191- 191) =        862.6  [cm-1]   --> E_g             R
     freq ( 192- 192) =        862.6  [cm-1]   --> E_g*            R
     freq ( 193- 193) =        864.2  [cm-1]   --> E_u             I
     freq ( 194- 194) =        864.2  [cm-1]   --> E_u*            I
     freq ( 195- 195) =        864.4  [cm-1]   --> E_u             I
     freq ( 196- 196) =        864.4  [cm-1]   --> E_u*            I
     freq ( 197- 197) =        874.1  [cm-1]   --> A_u             I
     freq ( 198- 198) =        882.0  [cm-1]   --> A_u             I
     freq ( 199- 199) =        972.8  [cm-1]   --> A_g             R
     freq ( 200- 200) =        973.7  [cm-1]   --> E_g             R
     freq ( 201- 201) =        973.7  [cm-1]   --> E_g*            R
     freq ( 202- 202) =        975.2  [cm-1]   --> A_g             R
     freq ( 203- 203) =        975.9  [cm-1]   --> E_u             I
     freq ( 204- 204) =        975.9  [cm-1]   --> E_u*            I
     freq ( 205- 205) =        976.4  [cm-1]   --> E_g             R
     freq ( 206- 206) =        976.4  [cm-1]   --> E_g*            R
     freq ( 207- 207) =        976.4  [cm-1]   --> A_u             I
     freq ( 208- 208) =        978.4  [cm-1]   --> E_u             I
     freq ( 209- 209) =        978.4  [cm-1]   --> E_u*            I
     freq ( 210- 210) =        978.6  [cm-1]   --> A_u             I
     freq ( 211- 211) =        995.2  [cm-1]   --> A_u             I
     freq ( 212- 212) =       1011.5  [cm-1]   --> A_u             I
     freq ( 213- 213) =       1019.0  [cm-1]   --> E_u             I
     freq ( 214- 214) =       1019.0  [cm-1]   --> E_u*            I
     freq ( 215- 215) =       1033.6  [cm-1]   --> E_u             I
     freq ( 216- 216) =       1033.6  [cm-1]   --> E_u*            I
     freq ( 217- 217) =       1089.4  [cm-1]   --> A_u             I
     freq ( 218- 218) =       1090.3  [cm-1]   --> E_u             I
     freq ( 219- 219) =       1090.3  [cm-1]   --> E_u*            I
     freq ( 220- 220) =       1093.1  [cm-1]   --> A_u             I
     freq ( 221- 221) =       1100.2  [cm-1]   --> E_u             I
     freq ( 222- 222) =       1100.2  [cm-1]   --> E_u*            I
     freq ( 223- 223) =       1116.2  [cm-1]   --> E_u             I
     freq ( 224- 224) =       1116.2  [cm-1]   --> E_u*            I
     freq ( 225- 225) =       1118.3  [cm-1]   --> E_u             I
     freq ( 226- 226) =       1118.3  [cm-1]   --> E_u*            I
     freq ( 227- 227) =       1123.0  [cm-1]   --> E_g             R
     freq ( 228- 228) =       1123.0  [cm-1]   --> E_g*            R
     freq ( 229- 229) =       1123.9  [cm-1]   --> A_g             R
     freq ( 230- 230) =       1129.2  [cm-1]   --> A_g             R
     freq ( 231- 231) =       1130.5  [cm-1]   --> E_g             R
     freq ( 232- 232) =       1130.5  [cm-1]   --> E_g*            R
     freq ( 233- 233) =       1132.0  [cm-1]   --> A_u             I
     freq ( 234- 234) =       1140.7  [cm-1]   --> A_u             I
     freq ( 235- 235) =       1175.8  [cm-1]   --> E_g             R
     freq ( 236- 236) =       1175.8  [cm-1]   --> E_g*            R
     freq ( 237- 237) =       1176.3  [cm-1]   --> A_g             R
     freq ( 238- 238) =       1177.2  [cm-1]   --> E_g             R
     freq ( 239- 239) =       1177.2  [cm-1]   --> E_g*            R
     freq ( 240- 240) =       1190.3  [cm-1]   --> A_g             R
     freq ( 241- 241) =       1269.2  [cm-1]   --> A_g             R
     freq ( 242- 242) =       1272.8  [cm-1]   --> E_g             R
     freq ( 243- 243) =       1272.8  [cm-1]   --> E_g*            R
     freq ( 244- 244) =       1274.2  [cm-1]   --> A_g             R
     freq ( 245- 245) =       1283.4  [cm-1]   --> E_g             R
     freq ( 246- 246) =       1283.4  [cm-1]   --> E_g*            R
     freq ( 247- 247) =       1335.4  [cm-1]   --> E_u             I
     freq ( 248- 248) =       1335.4  [cm-1]   --> E_u*            I
     freq ( 249- 249) =       1341.9  [cm-1]   --> A_u             I
     freq ( 250- 250) =       1345.6  [cm-1]   --> A_u             I
     freq ( 251- 251) =       1352.9  [cm-1]   --> E_u             I
     freq ( 252- 252) =       1352.9  [cm-1]   --> E_u*            I
     freq ( 253- 253) =       1354.1  [cm-1]   --> E_u             I
     freq ( 254- 254) =       1354.1  [cm-1]   --> E_u*            I
     freq ( 255- 255) =       1354.3  [cm-1]   --> A_u             I
     freq ( 256- 256) =       1356.3  [cm-1]   --> A_u             I
     freq ( 257- 257) =       1375.6  [cm-1]   --> E_u             I
     freq ( 258- 258) =       1375.6  [cm-1]   --> E_u*            I
     freq ( 259- 259) =       1380.3  [cm-1]   --> E_u             I
     freq ( 260- 260) =       1380.3  [cm-1]   --> E_u*            I
     freq ( 261- 261) =       1383.6  [cm-1]   --> E_g             R
     freq ( 262- 262) =       1383.6  [cm-1]   --> E_g*            R
     freq ( 263- 263) =       1384.2  [cm-1]   --> E_u             I
     freq ( 264- 264) =       1384.2  [cm-1]   --> E_u*            I
     freq ( 265- 265) =       1386.4  [cm-1]   --> A_u             I
     freq ( 266- 266) =       1388.6  [cm-1]   --> A_g             R
     freq ( 267- 267) =       1391.5  [cm-1]   --> A_u             I
     freq ( 268- 268) =       1401.9  [cm-1]   --> E_g             R
     freq ( 269- 269) =       1401.9  [cm-1]   --> E_g*            R
     freq ( 270- 270) =       1412.6  [cm-1]   --> A_g             R
     freq ( 271- 271) =       1465.9  [cm-1]   --> A_g             R
     freq ( 272- 272) =       1474.1  [cm-1]   --> E_u             I
     freq ( 273- 273) =       1474.1  [cm-1]   --> E_u*            I
     freq ( 274- 274) =       1476.1  [cm-1]   --> E_u             I
     freq ( 275- 275) =       1476.1  [cm-1]   --> E_u*            I
     freq ( 276- 276) =       1476.6  [cm-1]   --> A_u             I
     freq ( 277- 277) =       1479.7  [cm-1]   --> A_u             I
     freq ( 278- 278) =       1483.6  [cm-1]   --> A_u             I
     freq ( 279- 279) =       1490.2  [cm-1]   --> A_g             R
     freq ( 280- 280) =       1497.8  [cm-1]   --> E_g             R
     freq ( 281- 281) =       1497.8  [cm-1]   --> E_g*            R
     freq ( 282- 282) =       1500.5  [cm-1]   --> E_u             I
     freq ( 283- 283) =       1500.5  [cm-1]   --> E_u*            I
     freq ( 284- 284) =       1531.5  [cm-1]   --> E_g             R
     freq ( 285- 285) =       1531.5  [cm-1]   --> E_g*            R
     freq ( 286- 286) =       1548.1  [cm-1]   --> E_u             I
     freq ( 287- 287) =       1548.1  [cm-1]   --> E_u*            I
     freq ( 288- 288) =       1562.0  [cm-1]   --> A_u             I
     freq ( 289- 289) =       1572.2  [cm-1]   --> A_g             R
     freq ( 290- 290) =       1574.1  [cm-1]   --> A_g             R
     freq ( 291- 291) =       1577.5  [cm-1]   --> E_g             R
     freq ( 292- 292) =       1577.5  [cm-1]   --> E_g*            R
     freq ( 293- 293) =       1590.8  [cm-1]   --> E_g             R
     freq ( 294- 294) =       1590.8  [cm-1]   --> E_g*            R
     freq ( 295- 295) =       1599.7  [cm-1]   --> A_g             R
     freq ( 296- 296) =       1600.9  [cm-1]   --> A_g             R
     freq ( 297- 297) =       1603.7  [cm-1]   --> E_g             R
     freq ( 298- 298) =       1603.7  [cm-1]   --> E_g*            R
     freq ( 299- 299) =       1608.5  [cm-1]   --> E_g             R
     freq ( 300- 300) =       1608.5  [cm-1]   --> E_g*            R
     freq ( 301- 301) =       3100.5  [cm-1]   --> E_u             I
     freq ( 302- 302) =       3100.5  [cm-1]   --> E_u*            I
     freq ( 303- 303) =       3103.5  [cm-1]   --> E_u             I
     freq ( 304- 304) =       3103.5  [cm-1]   --> E_u*            I
     freq ( 305- 305) =       3132.5  [cm-1]   --> A_g             R
     freq ( 306- 306) =       3133.4  [cm-1]   --> A_u             I
     freq ( 307- 307) =       3134.9  [cm-1]   --> A_g             R
     freq ( 308- 308) =       3135.7  [cm-1]   --> A_u             I
     freq ( 309- 309) =       3139.6  [cm-1]   --> A_u             I
     freq ( 310- 310) =       3140.8  [cm-1]   --> A_g             R
     freq ( 311- 311) =       3142.4  [cm-1]   --> E_g             R
     freq ( 312- 312) =       3142.4  [cm-1]   --> E_g*            R
     freq ( 313- 313) =       3142.8  [cm-1]   --> A_g             R
     freq ( 314- 314) =       3144.1  [cm-1]   --> E_u             I
     freq ( 315- 315) =       3144.1  [cm-1]   --> E_u*            I
     freq ( 316- 316) =       3144.8  [cm-1]   --> E_g             R
     freq ( 317- 317) =       3144.8  [cm-1]   --> E_g*            R
     freq ( 318- 318) =       3148.7  [cm-1]   --> E_g             R
     freq ( 319- 319) =       3148.7  [cm-1]   --> E_g*            R
     freq ( 320- 320) =       3149.4  [cm-1]   --> A_u             I
     freq ( 321- 321) =       3151.5  [cm-1]   --> E_g             R
     freq ( 322- 322) =       3151.5  [cm-1]   --> E_g*            R
     freq ( 323- 323) =       3152.0  [cm-1]   --> E_u             I
     freq ( 324- 324) =       3152.0  [cm-1]   --> E_u*            I

     INITIALIZATION:

     DIELECTRIC CONSTANT AND EFFECTIVE CHARGES:

     DYNAMICAL MATRIX:

                                        0.00s GPU  (    2282 calls)

                                        0.00s GPU  (     648 calls)

      General routines

      Additional routines
                                        0.00s GPU  (  128133 calls)
                                        0.00s GPU  (  128133 calls)

   This run was terminated on:  17:14:51   3Aug2025

   JOB DONE.