     Program PWSCF v.7.3.1 starts on  4Jun2025 at  7: 5:37

     Waiting for input...
     Reading input from standard input

     Current dimensions of program PWSCF are:
     Max number of different atomic species (ntypx) = 10
     Max number of k-points (npk) =  40000
     Max angular momentum in pseudopotentials (lmaxx) =  4
     file H.pbe-kjpaw_psl.1.0.0.UPF: wavefunction(s)  1S renormalized
     file Zr.pbe-spn-kjpaw_psl.1.0.0.UPF: wavefunction(s)  4S 4P renormalized
     file C.pbe-n-kjpaw_psl.1.0.0.UPF: wavefunction(s)  2S 2P renormalized
     file O.pbe-n-kjpaw_psl.1.0.0.UPF: wavefunction(s)  2S 2P renormalized
     file N.pbe-n-kjpaw_psl.1.0.0.UPF: wavefunction(s)  2S renormalized

     IMPORTANT: XC functional enforced from input :
     Exchange-correlation= PBE
                           (   1   4   3   4   0   0   0)
     Any further DFT definition will be discarded
     Please, verify this is what you really want

     gamma-point specific algorithms are used

     R & G space division:  proc/nbgrp/npool/nimage =     256
     wavefunctions fft division:  task group distribution
                                  #TG    x Z-proc =       8     32
     Subspace diagonalization in iterative solution of the eigenvalue problem:
     one sub-group per band group will be used

     Using Pencil Decomposition

     Title:
     UiO-66-NH2-dehydrox GeomOpt

     bravais-lattice index     =            0
     lattice parameter (alat)  =      27.5206  a.u.
     unit-cell volume          =   15311.2986 (a.u.)^3
     number of atoms/cell      =          120
     number of atomic types    =            5
     number of electrons       =       504.00
     number of Kohn-Sham states=          252
     kinetic-energy cutoff     =      90.0000  Ry
     charge density cutoff     =     540.0000  Ry
     scf convergence threshold =      1.0E-08
     mixing beta               =       0.7000
     number of iterations used =            8  plain     mixing
     energy convergence thresh.=      3.6E-06
     force convergence thresh. =      1.0E-05
     press convergence thresh. =      5.0E-01
     Exchange-correlation= PBE
                           (   1   4   3   4   0   0   0)
     nstep                     =          750

     celldm(1)=  27.520592  celldm(2)=   0.000000  celldm(3)=   0.000000
     celldm(4)=   0.000000  celldm(5)=   0.000000  celldm(6)=   0.000000

     crystal axes: (cart. coord. in units of alat)
               a(1) = (   0.999128  -0.001499  -0.001074 )
               a(2) = (   0.472592   0.880293  -0.001074 )
               a(3) = (   0.472592   0.282194   0.833837 )

     reciprocal axes: (cart. coord. in units 2 pi/alat)
               b(1) = (  0.999653 -0.537141 -0.384788 )
               b(2) = (  0.001289  1.134823 -0.384787 )
               b(3) = (  0.001289  0.000770  1.198284 )

     PseudoPot. # 1 for H  read from file:
     /home/mehlhorn/pseudos/UiO-66_pbe-spn-kjpaw/H.pbe-kjpaw_psl.1.0.0.UPF
     MD5 check sum: d81a744832360e4a8af0b0b5b123bc2a
     Pseudo is Projector augmented-wave, Zval =  1.0
     Generated using &quot;atomic&quot; code by A. Dal Corso  v.6.3MaX
     Shape of augmentation charge: PSQ
     Using radial grid of  929 points,  2 beta functions with:
                l(1) =   0
                l(2) =   0
     Q(r) pseudized with 0 coefficients

     PseudoPot. # 2 for Zr read from file:
     /home/mehlhorn/pseudos/UiO-66_pbe-spn-kjpaw/Zr.pbe-spn-kjpaw_psl.1.0.0.UPF
     MD5 check sum: 02112c41713a0468aff2bb39ef194e36
     Pseudo is Projector augmented-wave + core cor, Zval = 12.0
     Generated using &quot;atomic&quot; code by A. Dal Corso  v.6.2.2
     Shape of augmentation charge: PSQ
     Using radial grid of 1225 points,  6 beta functions with:
                l(1) =   0
                l(2) =   0
                l(3) =   1
                l(4) =   1
                l(5) =   2
                l(6) =   2
     Q(r) pseudized with 0 coefficients

     PseudoPot. # 3 for C  read from file:
     /home/mehlhorn/pseudos/UiO-66_pbe-spn-kjpaw/C.pbe-n-kjpaw_psl.1.0.0.UPF
     MD5 check sum: 5f16ad9a65e90284d1d834d4ab3b0f7d
     Pseudo is Projector augmented-wave + core cor, Zval =  4.0
     Generated using &quot;atomic&quot; code by A. Dal Corso  v.6.3
     Shape of augmentation charge: PSQ
     Using radial grid of 1073 points,  4 beta functions with:
                l(1) =   0
                l(2) =   0
                l(3) =   1
                l(4) =   1
     Q(r) pseudized with 0 coefficients

     PseudoPot. # 4 for O  read from file:
     /home/mehlhorn/pseudos/UiO-66_pbe-spn-kjpaw/O.pbe-n-kjpaw_psl.1.0.0.UPF
     MD5 check sum: e99d9cef9b487d1ca56f5b95ecd0fd7a
     Pseudo is Projector augmented-wave + core cor, Zval =  6.0
     Generated using &quot;atomic&quot; code by A. Dal Corso  v.6.3
     Shape of augmentation charge: PSQ
     Using radial grid of 1095 points,  4 beta functions with:
                l(1) =   0
                l(2) =   0
                l(3) =   1
                l(4) =   1
     Q(r) pseudized with 0 coefficients

     PseudoPot. # 5 for N  read from file:
     /home/mehlhorn/pseudos/UiO-66_pbe-spn-kjpaw/N.pbe-n-kjpaw_psl.1.0.0.UPF
     MD5 check sum: 14c48229446f9f2d411169a3abcbc3fa
     Pseudo is Projector augmented-wave + core cor, Zval =  5.0
     Generated using &quot;atomic&quot; code by A. Dal Corso  v.6.3
     Shape of augmentation charge: PSQ
     Using radial grid of 1085 points,  4 beta functions with:
                l(1) =   0
                l(2) =   0
                l(3) =   1
                l(4) =   1
     Q(r) pseudized with 0 coefficients

     atomic species   valence    mass     pseudopotential
     H                 1.00     1.00750     H ( 1.00)
     Zr               12.00    91.22400     Zr( 1.00)
     C                 4.00    12.01060     C ( 1.00)
     O                 6.00    15.99900     O ( 1.00)
     N                 5.00    14.00650     N ( 1.00)

     No symmetry found

   Cartesian axes

     site n.     atom                  positions (alat units)
         1        Zr     tau(   1) = (   0.9897260   0.1394703   0.1027928  )
         2        Zr     tau(   2) = (   0.5946370   0.8038567   0.0989843  )
         3        Zr     tau(   3) = (   0.5922354   0.3563639   0.7292731  )
         4        Zr     tau(   4) = (   1.3588491   0.8092782   0.1041067  )
         5        Zr     tau(   5) = (   0.9605257   1.0260101   0.7327585  )
         6        Zr     tau(   6) = (   1.3569845   0.3599400   0.7357153  )
         7        O      tau(   7) = (   1.0817914   0.2555949   0.0706762  )
         8        O      tau(   8) = (   0.6444250   0.8816090   0.2192682  )
         9        O      tau(   9) = (   0.7381347   0.3343093   0.7641934  )
        10        O      tau(  10) = (   1.3045630   0.2843690   0.6139293  )
        11        O      tau(  11) = (   0.8691315   0.9073844   0.7621840  )
        12        O      tau(  12) = (   1.2110664   0.8293564   0.0717351  )
        13        O      tau(  13) = (   1.3016404   0.6832251   0.0358596  )
        14        O      tau(  14) = (   1.2188784   0.2983534   0.7665977  )
        15        O      tau(  15) = (   0.7342708   0.8621459   0.0677019  )
        16        O      tau(  16) = (   0.8408012   1.0255330   0.6353639  )
        17        O      tau(  17) = (   0.8818625   0.0540130   0.0408773  )
        18        O      tau(  18) = (   0.4676612   0.7497466   0.0379903  )
        19        O      tau(  19) = (   0.6489012   0.4844451   0.7945267  )
        20        O      tau(  20) = (   1.1072722   0.1405044   0.2030708  )
        21        O      tau(  21) = (   0.6533449   0.6700937   0.0663036  )
        22        O      tau(  22) = (   0.5549554   0.4431368   0.6131359  )
        23        O      tau(  23) = (   0.8908622   0.2535811   0.0678990  )
        24        O      tau(  24) = (   1.3956965   0.7201220   0.2186948  )
        25        O      tau(  25) = (   1.0482662   1.0205917   0.6114768  )
        26        O      tau(  26) = (   1.2959737   0.4924776   0.7696042  )
        27        O      tau(  27) = (   0.4658406   0.2802309   0.6976630  )
        28        O      tau(  28) = (   1.3085984   0.8849098   0.2273867  )
        29        O      tau(  29) = (   0.5509774   0.7150793   0.2182545  )
        30        O      tau(  30) = (   1.4852946   0.8850105   0.1350273  )
        31        O      tau(  31) = (   1.4836319   0.4134731   0.7971534  )
        32        O      tau(  32) = (   1.0677256   1.1118828   0.7945166  )
        33        O      tau(  33) = (   1.3997315   0.4508919   0.6202003  )
        34        O      tau(  34) = (   0.6457990   0.2779106   0.6068436  )
        35        O      tau(  35) = (   1.0608711   0.9148643   0.7647070  )
        36        O      tau(  36) = (   0.8998145   0.1455674   0.2223165  )
        37        N      tau(  37) = (   1.0710587   0.4367077   0.0960083  )
        38        N      tau(  38) = (   0.7117453   0.8331457   0.3826023  )
        39        N      tau(  39) = (   0.8924867   0.3276150   0.6657582  )
        40        N      tau(  40) = (   1.3029846   0.6477111   0.3585662  )
        41        N      tau(  41) = (   1.1882513   0.6097040   0.6798447  )
        42        N      tau(  42) = (   1.1003703   0.8872057   0.4979157  )
        43        C      tau(  43) = (   0.8036981   0.9010656   0.8198487  )
        44        C      tau(  44) = (   1.3198026   0.2018311   0.5893945  )
        45        C      tau(  45) = (   0.1557562   0.0831829   0.2491217  )
        46        C      tau(  46) = (   1.1744669   0.8663862   0.0014784  )
        47        C      tau(  47) = (   0.1909256   0.3588803   0.0061936  )
        48        C      tau(  48) = (   0.4065008   0.0051743  -0.0040233  )
        49        C      tau(  49) = (   0.3050928   0.0125441  -0.0013880  )
        50        C      tau(  50) = (   0.1471093   0.2672975   0.0123234  )
        51        C      tau(  51) = (   1.1515089   0.4372420   0.0473252  )
        52        C      tau(  52) = (   0.7094772   0.9257525   0.3987703  )
        53        C      tau(  53) = (   0.7931772   0.7319043   0.7842133  )
        54        C      tau(  54) = (   1.2768189   0.1704056   0.5015407  )
        55        C      tau(  55) = (   0.7556446   0.8105039   0.8263978  )
        56        C      tau(  56) = (   1.0719479   0.8727969  -0.0000116  )
        57        C      tau(  57) = (   0.1973689   0.1105340   0.3378073  )
        58        C      tau(  58) = (   1.1980611   0.2029518   0.3600080  )
        59        C      tau(  59) = (   1.1137163   0.8978650   0.8322063  )
        60        C      tau(  60) = (   1.3186990   0.9663817   0.2573538  )
[...]
       106        H      tau( 106) = (   0.7464886   0.2985896   0.4775369  )
       107        H      tau( 107) = (   1.2048910   0.8616839   0.3547045  )
       108        H      tau( 108) = (   1.0333383   0.3780708   0.0964530  )
       109        H      tau( 109) = (   1.0387660   0.4973806   0.1063910  )
       110        H      tau( 110) = (   1.3300933   0.5456116   0.5032250  )
[...]
H                0.5545385985        0.4652112129        0.7654173094
H                0.4652111239        0.7654168994        0.5545388427

     Writing config-only to output data dir ./pwscf.save/ :
     XML data file
     NEW-OLD atomic charge density approx. for the potential

     Check: negative core charge=   -0.000002

[...]

     Self-consistent Calculation

[...]

     Threshold (ethr) on eigenvalues was too large:
     Diagonalizing with lowered threshold

     Davidson diagonalization with overlap
     ethr =  8.70E-13,  avg # of iterations = 10.0

[...]

     total energy              =   -4185.72623708 Ry
     estimated scf accuracy    <          1.7E-10 Ry

     iteration #  4     ecut=    90.00 Ry     beta= 0.70
     Davidson diagonalization with overlap
     ethr =  1.00E-13,  avg # of iterations =  6.0

[...]

     End of self-consistent calculation

          k = 0.0000 0.0000 0.0000 (110398 PWs)   bands (ev):

   -49.2819 -49.2659 -49.2659 -49.2509 -49.2477 -49.2477 -27.7856 -27.6804
   -27.6804 -27.5785 -27.5785 -27.5707 -27.4374 -27.3940 -27.3940 -27.3872
   -27.3872 -27.3597 -27.2878 -27.2877 -27.2513 -27.2361 -27.2361 -27.2361
   -22.4727 -22.4340 -22.4340 -22.4085 -22.4084 -22.3910 -22.2178 -22.1736
   -22.1504 -22.1504 -22.1142 -22.1142 -20.1861 -20.1695 -20.1695 -20.1334
   -20.1333 -20.0984 -19.9624 -19.9624 -19.9115 -19.9114 -19.8622 -19.8266
   -18.7048 -18.7012 -18.7012 -18.4521 -18.4520 -18.4520 -17.6689 -17.4426
   -17.4426 -17.2489 -17.2488 -17.2147 -16.5673 -16.5673 -16.5667 -16.3436
   -16.3434 -16.3434 -14.6168 -14.6168 -14.6087 -14.3916 -14.3716 -14.3716
   -13.6573 -13.6573 -13.6530 -13.4377 -13.4370 -13.4370 -11.9893 -11.9631
   -11.9631 -11.7638 -11.7118 -11.7118 -10.6567 -10.6529 -10.6529 -10.4259
   -10.4259 -10.4158  -9.9308  -9.9308  -9.8050  -9.7214  -9.6143  -9.5516
    -9.5515  -9.5217  -9.5217  -9.3941  -9.3171  -9.3171  -8.6571  -8.6071
    -8.6071  -8.3992  -8.3520  -8.3519  -8.2488  -8.0937  -8.0936  -8.0089
    -7.9687  -7.9687  -7.8189  -7.7537  -7.7537  -7.6364  -7.6364  -7.5992
    -7.5144  -7.5143  -7.4379  -7.4378  -7.4225  -7.3300  -7.3202  -7.3201
    -7.2333  -7.1461  -7.1460  -6.9547  -6.9547  -6.9409  -6.9313  -6.8002
    -6.7585  -6.7585  -6.7220  -6.5389  -6.5389  -6.4429  -6.4429  -6.4184
    -6.3478  -6.2175  -6.2174  -6.1552  -6.0164  -6.0164  -6.0025  -5.9598
    -5.9598  -5.8872  -5.8624  -5.8623  -5.7545  -5.7545  -5.7439  -5.6590
    -5.6569  -5.6569  -5.4210  -5.3503  -5.3502  -5.1706  -5.0075  -4.9950
    -4.9950  -4.9367  -4.9367  -4.8059  -4.7667  -4.7481  -4.7481  -4.5928
    -4.5928  -4.5649  -4.5437  -4.5437  -4.4677  -4.0738  -4.0738  -4.0542
    -3.9340  -3.9206  -3.9206  -3.8689  -3.8689  -3.8180  -3.8180  -3.7711
    -3.6917  -3.6917  -3.5207  -3.3304  -3.3303  -3.3232  -3.2636  -3.2465
    -3.2464  -3.1893  -3.1461  -3.0844  -3.0844  -3.0352  -2.9984  -2.9984
    -2.9098  -2.9097  -2.9032  -2.7867  -2.7867  -2.7772  -2.7754  -2.6655
    -2.6655  -2.6167  -2.6167  -2.5585  -2.5585  -2.4938  -2.4005  -2.3602
    -2.3602  -2.3499  -2.2608  -2.2608  -2.2305  -2.1956  -2.1956  -2.1685
    -2.1394  -2.1394  -2.0570  -2.0554  -2.0554  -1.9752  -1.9752  -1.9460
    -1.7686  -1.7366  -1.7365  -1.3223  -1.3223  -1.1856  -0.6784  -0.6784
    -0.6644  -0.4591  -0.4416  -0.4416

     highest occupied level (ev):    -0.4416

!    total energy              =   -4185.72623708 Ry
     total all-electron energy =    -52053.936107 Ry
     estimated scf accuracy    <          7.7E-11 Ry

     The total energy is the sum of the following terms:
     one-electron contribution =   -6006.38153084 Ry
     hartree contribution      =    3151.87329714 Ry
     xc contribution           =    -609.64736863 Ry
     ewald contribution        =    1169.92869195 Ry
     one-center paw contrib.   =   -1891.49932670 Ry

     convergence has been achieved in   4 iterations

     negative rho (up, down):  5.500E-05 0.000E+00

     Forces acting on atoms (cartesian axes, Ry/au):

     atom    1 type  2   force =     0.00000019    0.00000329   -0.00000223
     atom    2 type  2   force =    -0.00000054    0.00000015    0.00000484
     atom    3 type  2   force =     0.00000100   -0.00000417    0.00000059
     atom    4 type  2   force =     0.00000286   -0.00000068   -0.00000150
     atom    5 type  2   force =     0.00000068    0.00000268   -0.00000200
     atom    6 type  2   force =    -0.00000706    0.00000163   -0.00000280
     atom    7 type  4   force =     0.00000335   -0.00000250   -0.00000754
     atom    8 type  4   force =    -0.00000506    0.00000524   -0.00000041
     atom    9 type  4   force =    -0.00000496   -0.00000306    0.00000128
     atom   10 type  4   force =     0.00000499   -0.00002653   -0.00001180
     atom   11 type  4   force =    -0.00000071   -0.00000339    0.00000133
     atom   12 type  4   force =     0.00000367   -0.00000746    0.00001811
     atom   13 type  4   force =    -0.00000528    0.00000289   -0.00000170
     atom   14 type  4   force =    -0.00001137   -0.00001267    0.00001489
     atom   15 type  4   force =     0.00000260   -0.00000343    0.00000811
     atom   16 type  4   force =     0.00000553   -0.00001614    0.00001053
     atom   17 type  4   force =     0.00000817   -0.00000225    0.00000566
     atom   18 type  4   force =     0.00000349    0.00000614   -0.00000039
     atom   19 type  4   force =     0.00000781   -0.00000319   -0.00000864
     atom   20 type  4   force =    -0.00000276    0.00001002    0.00000092
     atom   21 type  4   force =     0.00000150    0.00000161    0.00000455
     atom   22 type  4   force =     0.00002370   -0.00000660    0.00000570
     atom   23 type  4   force =    -0.00000366    0.00000417    0.00000197
     atom   24 type  4   force =     0.00000043   -0.00000318   -0.00000214
     atom   25 type  4   force =    -0.00000298    0.00000325   -0.00000051
     atom   26 type  4   force =    -0.00000150    0.00000626    0.00001060
     atom   27 type  4   force =     0.00000805   -0.00000028    0.00000597
     atom   28 type  4   force =    -0.00000154    0.00000153    0.00000169
     atom   29 type  4   force =    -0.00000709   -0.00000602    0.00000585
     atom   30 type  4   force =    -0.00000377    0.00000000   -0.00000271
     atom   31 type  4   force =     0.00000222   -0.00000394   -0.00000203
     atom   32 type  4   force =    -0.00000352   -0.00000089   -0.00000023
     atom   33 type  4   force =     0.00002370    0.00000644   -0.00001242
     atom   34 type  4   force =     0.00000193    0.00000791   -0.00000128
     atom   35 type  4   force =    -0.00000073   -0.00000078   -0.00000110
     atom   36 type  4   force =     0.00000172    0.00000393   -0.00000045
     atom   37 type  5   force =     0.00000001    0.00000774    0.00000759
     atom   38 type  5   force =     0.00000174   -0.00000206   -0.00001195
     atom   39 type  5   force =     0.00001206    0.00000571   -0.00000572
     atom   40 type  5   force =    -0.00001004    0.00000633   -0.00001646
     atom   41 type  5   force =     0.00000793   -0.00001757    0.00000414
     atom   42 type  5   force =    -0.00001331   -0.00000443    0.00000618
     atom   43 type  3   force =    -0.00000122   -0.00000426   -0.00000477
     atom   44 type  3   force =    -0.00001982    0.00004200   -0.00000171
     atom   45 type  3   force =     0.00000499   -0.00000239    0.00000399
     atom   46 type  3   force =    -0.00000011    0.00001415   -0.00003596
     atom   47 type  3   force =     0.00000299    0.00000423    0.00000436
     atom   48 type  3   force =     0.00000305    0.00000382    0.00000073
     atom   49 type  3   force =     0.00000671    0.00000030    0.00000125
     atom   50 type  3   force =    -0.00000149    0.00000595    0.00000604
     atom   51 type  3   force =     0.00000107   -0.00000814    0.00000512
     atom   52 type  3   force =     0.00000622   -0.00000292   -0.00000219
     atom   53 type  3   force =     0.00000267    0.00000838    0.00000013
     atom   54 type  3   force =     0.00000241   -0.00001561   -0.00000133
     atom   55 type  3   force =    -0.00000153   -0.00000222    0.00000153
     atom   56 type  3   force =    -0.00000199   -0.00000126    0.00000697
     atom   57 type  3   force =     0.00000432    0.00000285   -0.00000011
     atom   58 type  3   force =     0.00000130   -0.00000971   -0.00000368
     atom   59 type  3   force =     0.00000470   -0.00000602    0.00000217
     atom   60 type  3   force =    -0.00000157    0.00000309    0.00000314
[...]
     atom  106 type  1   force =    -0.00000080   -0.00000348    0.00000325
     atom  107 type  1   force =    -0.00000430    0.00000175   -0.00000477
     atom  108 type  1   force =     0.00000358   -0.00000256   -0.00000100
     atom  109 type  1   force =     0.00000226   -0.00000171   -0.00000236
     atom  110 type  1   force =     0.00000378   -0.00000583   -0.00000425
     atom  111 type  1   force =     0.00000412   -0.00000618    0.00001105
     atom  112 type  1   force =     0.00000759    0.00000041   -0.00000770
     atom  113 type  1   force =    -0.00000863   -0.00000710    0.00000698
     atom  114 type  1   force =    -0.00000004   -0.00000127    0.00000642
     atom  115 type  1   force =    -0.00000369    0.00001284    0.00000221
     atom  116 type  1   force =    -0.00000155   -0.00000111    0.00000459
     atom  117 type  1   force =     0.00000437    0.00000628    0.00000438
     atom  118 type  1   force =    -0.00000351    0.00000037    0.00000393
     atom  119 type  1   force =    -0.00001500    0.00000665   -0.00000949
     atom  120 type  1   force =     0.00000031   -0.00000678   -0.00000747

     Total force =     0.000137     Total SCF correction =     0.000028
     SCF correction compared to forces is large: reduce conv_thr to get better values

     Computing stress (Cartesian axis) and pressure

     negative rho (up, down):  5.500E-05 0.000E+00
          total   stress  (Ry/bohr**3)                   (kbar)     P=        0.00
   0.00000002   0.00000001   0.00000002            0.00        0.00        0.00
   0.00000001  -0.00000000   0.00000000            0.00       -0.00        0.00
   0.00000002   0.00000000  -0.00000000            0.00        0.00       -0.00

     Message from routine bfgs:
     history already reset at previous step: exiting
     Energy error            =      3.0E-09 Ry
     Gradient error          =      4.3E-05 Ry/Bohr
     Cell gradient error     =      2.7E-03 kbar

     bfgs failed after  40 scf cycles and  39 bfgs steps, convergence not achieved
     (criteria: energy <  3.6E-06 Ry, force <  1.0E-05 Ry/Bohr, cell <  5.0E-01 kbar)

     End of BFGS Geometry Optimization

     Final enthalpy           =   -4185.7262370821 Ry

     File ./pwscf.bfgs deleted, as requested
Begin final coordinates
     new unit-cell volume =  15323.50573 a.u.^3 (  2270.70927 Ang^3 )
     density =      1.25641 g/cm^3

CELL_PARAMETERS (alat= 27.52059178)
   0.999445745  -0.001435811  -0.001028963
   0.472798893   0.880542647  -0.001028889
   0.472798589   0.282317612   0.834058213

ATOMIC_POSITIONS (crystal)
Zr               0.8749135641        0.1200173540        0.1244979047
Zr               0.1244978054        0.8749136947        0.1200173508
Zr               0.1200173729        0.1244979875        0.8749135355
Zr               0.8835661646        0.8801373747        0.1271337762
Zr               0.1271339649        0.8835661156        0.8801374257
Zr               0.8801375188        0.1271338585        0.8835662877
O                0.9170719777        0.2641788905        0.0861961986
O                0.0861960944        0.9170716406        0.2641790468
O                0.2641789314        0.0861960730        0.9170717928
O                0.9152784543        0.0879028601        0.7376363350
O                0.0879025973        0.7376364077        0.9152785764
O                0.7376365937        0.9152791195        0.0879014104
O                0.9203452397        0.7629706324        0.0455754917
O                0.7629709324        0.0455760906        0.9203440244
O                0.2449927118        0.9530587605        0.0827409293
O                0.0455752394        0.9203450893        0.7629708199
O                0.8368813287        0.0467118622        0.0500722438
O                0.0500724198        0.8368814639        0.0467116968
O                0.0827409170        0.2449929573        0.9530584304
O                0.9530586887        0.0827408043        0.2449928462
O                0.2675780983        0.7357038458        0.0808496089
O                0.0808491541        0.2675783276        0.7357036358
O                0.7282923712        0.2628443989        0.0826275011
O                0.9241780654        0.7349896038        0.2645216730
O                0.2645217668        0.9241782318        0.7349893020
O                0.7349897165        0.2645219962        0.9241778841
O                0.0467116342        0.0500724124        0.8368814371
O                0.7452160041        0.9185240243        0.2747468147
O                0.0826272785        0.7282925941        0.2628444818
O                0.9574215423        0.9543436389        0.1643516311
O                0.9543435769        0.1643516698        0.9574217270
O                0.1643514761        0.9574217430        0.9543437447
O                0.9185235918        0.2747470775        0.7452160462
O                0.2628447348        0.0826270756        0.7282923936
O                0.2747473469        0.7452163266        0.9185239084
O                0.7357038304        0.0808493701        0.2675781593
N                0.7992498241        0.4599191927        0.1167255976
N                0.1167244832        0.7992488297        0.4599200568
N                0.4599194053        0.1167242099        0.7992489628
N                0.8167458059        0.5986956637        0.4318255544
N                0.5986952054        0.4318254081        0.8167460440
N                0.4318253686        0.8167460158        0.5986955035
C                0.0038305617        0.7080344447        0.9843847118
C                0.9843853905        0.0038295501        0.7080344966
C                0.0150407486       -0.0012009943        0.2987928168
C                0.7080344038        0.9843844851        0.0038304751
C               -0.0042656218        0.4051067637        0.0079094376
C                0.4051066805        0.0079097519       -0.0042660071
C                0.2987925171        0.0150409973       -0.0012008976
C               -0.0012006379        0.2987926768        0.0150407323
C                0.8980791038        0.4793861083        0.0585393754
C                0.0585388214        0.8980784476        0.4793864209
C                0.0979427692        0.5298321169        0.9414152029
C                0.9920166687        0.0019831999        0.6026936041
C                0.0019836590        0.6026934104        0.9920166212
C                0.6026934315        0.9920171611        0.0019827616
C                0.0079094124       -0.0042661990        0.4051070631
C                0.9501270400        0.0933060668        0.4331174205
C                0.3107483784        0.7000499157        0.9994268735
C                0.7000497951        0.9994267345        0.3107483107
[...]
H                0.4022056815        0.1559502387        0.5735077919
H                0.6050146916        0.8430659448        0.4271710504
H                0.7928979615        0.3931796526        0.1171330825
H                0.7303793625        0.5246882764        0.1292282700
H                0.8430658215        0.4271713706        0.6050143825
H                0.8201821752        0.6571156455        0.3567567669
H                0.3567567351        0.8201825511        0.6571154444
H                0.7654173226        0.5545385816        0.4652109899
H                0.1292268171        0.7303786157        0.5246887559
H                0.6571153664        0.3567566498        0.8201825152
H                0.5246887301        0.1292262435        0.7303785110
H                0.1171317814        0.7928971910        0.3931801320
H                0.3931799688        0.1171315200        0.7928973007
H                0.5545385985        0.4652112129        0.7654173094
H                0.4652111239        0.7654168994        0.5545388427
End final coordinates

     Writing config-only to output data dir ./pwscf.save/ :
     XML data file

     Writing all to output data dir ./pwscf.save/ :
     XML data file, charge density, pseudopotentials, collected wavefunctions

     General routines

     Parallel routines

   This run was terminated on:   7:54:24   4Jun2025

   JOB DONE.