     Program PHONON v.7.3.1 starts on 19Jun2025 at  7:39: 8

     Waiting for input...
     Reading input from standard input

     Reading xml data from directory:

     ./pwscf.save/

     R & G space division:  proc/nbgrp/npool/nimage =     256
     wavefunctions fft division:  task group distribution
                                  #TG    x Z-proc =       8     32
     Subspace diagonalization in iterative solution of the eigenvalue problem:
     one sub-group per band group will be used

     file H.pbe-kjpaw_psl.1.0.0.UPF: wavefunction(s)  1S renormalized
     file Zr.pbe-spn-kjpaw_psl.1.0.0.UPF: wavefunction(s)  4S 4P renormalized
     file C.pbe-n-kjpaw_psl.1.0.0.UPF: wavefunction(s)  2S 2P renormalized
     file O.pbe-n-kjpaw_psl.1.0.0.UPF: wavefunction(s)  2S 2P renormalized
     file N.pbe-n-kjpaw_psl.1.0.0.UPF: wavefunction(s)  2S renormalized

     IMPORTANT: XC functional enforced from input :
     Exchange-correlation= PBE
                           (   1   4   3   4   0   0   0)
     Any further DFT definition will be discarded
     Please, verify this is what you really want

     Using Pencil Decomposition

     negative rho (up, down):  8.397E-06 0.000E+00
     Reading collected, re-writing distributed wavefunctions in ./

     Number and degeneracy of irreps per q-point
       N         xq(1)         xq(2)         xq(3)   N irreps
       1   0.000000000   0.000000000   0.000000000     360
     No degeneracy

     Calculation of q =    0.0000000   0.0000000   0.0000000

     dielectric constant

     bravais-lattice index     =            5
     lattice parameter (alat)  =      27.5054  a.u.
     unit-cell volume          =   15323.5001 (a.u.)^3
     number of atoms/cell      =          120
     number of atomic types    =            5
     kinetic-energy cut-off    =     150.0000  Ry
     charge density cut-off    =     900.0000  Ry
     convergence threshold     =      1.0E-14
     beta                      =       0.7000
     number of iterations used =            4
     Exchange-correlation= PBE
                           (   1   4   3   4   0   0   0)

     celldm(1)=   27.50538  celldm(2)=    0.00000  celldm(3)=    0.00000
     celldm(4)=    0.47179  celldm(5)=    0.00000  celldm(6)=    0.00000

     crystal axes: (cart. coord. in units of alat)
               a(1) = (  0.5139 -0.2967  0.8049 )
               a(2) = (  0.0000  0.5934  0.8049 )
               a(3) = ( -0.5139 -0.2967  0.8049 )

     reciprocal axes: (cart. coord. in units 2 pi/alat)
               b(1) = (  0.9729 -0.5617  0.4141 )
               b(2) = (  0.0000  1.1234  0.4141 )
               b(3) = ( -0.9729 -0.5617  0.4141 )

     Atoms inside the unit cell:

     Cartesian axes

     site n.  atom      mass           positions (alat units)
        1  C      12.0106   tau(    1) = (   -0.14202    0.09353    0.56041  )
        2  C      12.0106   tau(    2) = (   -0.00999   -0.16976    0.56041  )
        3  C      12.0106   tau(    3) = (    0.15201    0.07622    0.56041  )
        4  C      12.0106   tau(    4) = (   -0.15417   -0.07937    1.05654  )
        5  C      12.0106   tau(    5) = (    0.14582   -0.09383    1.05654  )
        6  C      12.0106   tau(    6) = (    0.00835    0.17320    1.05654  )
        7  C      12.0106   tau(    7) = (    0.20412   -0.12508    1.13390  )
        8  C      12.0106   tau(    8) = (    0.00626    0.23931    1.13390  )
        9  C      12.0106   tau(    9) = (   -0.21038   -0.11424    1.13390  )
       10  C      12.0106   tau(   10) = (    0.21628   -0.22009    1.15584  )
       11  C      12.0106   tau(   11) = (    0.08246    0.29734    1.15584  )
       12  C      12.0106   tau(   12) = (   -0.29874   -0.07726    1.15584  )
       13  C      12.0106   tau(   13) = (    0.30239   -0.08170    1.26304  )
       14  C      12.0106   tau(   14) = (   -0.08044    0.30273    1.26304  )
       15  C      12.0106   tau(   15) = (   -0.22195   -0.22103    1.26304  )
       16  C      12.0106   tau(   16) = (   -0.30871   -0.18415    1.28518  )
       17  C      12.0106   tau(   17) = (    0.31383   -0.17527    1.28518  )
       18  C      12.0106   tau(   18) = (   -0.00512    0.35942    1.28518  )
       19  C      12.0106   tau(   19) = (   -0.17463   -0.18579    1.18848  )
       20  C      12.0106   tau(   20) = (    0.24821   -0.05834    1.18848  )
       21  C      12.0106   tau(   21) = (   -0.07358    0.24413    1.18848  )
       22  C      12.0106   tau(   22) = (   -0.15385    0.27357    0.81313  )
       23  C      12.0106   tau(   23) = (   -0.15999   -0.27003    0.81313  )
       24  C      12.0106   tau(   24) = (    0.31384   -0.00354    0.81313  )
       25  C      12.0106   tau(   25) = (    0.20986    0.23241    1.60980  )
       26  C      12.0106   tau(   26) = (   -0.30620    0.06554    1.60980  )
       27  C      12.0106   tau(   27) = (    0.09634   -0.29795    1.60980  )
       28  C      12.0106   tau(   28) = (   -0.31587    0.00266    0.80490  )
       29  C      12.0106   tau(   29) = (    0.15563   -0.27488    0.80490  )
       30  C      12.0106   tau(   30) = (    0.16024    0.27222    0.80490  )
       31  C      12.0106   tau(   31) = (    0.07412    0.35664    1.23218  )
       32  C      12.0106   tau(   32) = (   -0.34592   -0.11413    1.23218  )
       33  C      12.0106   tau(   33) = (    0.27180   -0.24251    1.23218  )
       34  C      12.0106   tau(   34) = (   -0.23316    0.07955    1.67134  )
       35  C      12.0106   tau(   35) = (    0.04768   -0.24170    1.67134  )
       36  C      12.0106   tau(   36) = (    0.18548    0.16215    1.67134  )
       37  C      12.0106   tau(   37) = (   -0.05133   -0.35489    1.55443  )
       38  C      12.0106   tau(   38) = (    0.33301    0.13299    1.55443  )
       39  C      12.0106   tau(   39) = (   -0.28168    0.22190    1.55443  )
       40  C      12.0106   tau(   40) = (    0.04548   -0.35618    1.54861  )
       41  C      12.0106   tau(   41) = (    0.28573    0.21748    1.54861  )
       42  C      12.0106   tau(   42) = (   -0.33120    0.13871    1.54861  )
       43  C      12.0106   tau(   43) = (   -0.21036    0.23379    1.61621  )
       44  C      12.0106   tau(   44) = (   -0.09729   -0.29907    1.61621  )
       45  C      12.0106   tau(   45) = (    0.30765    0.06528    1.61621  )
       46  C      12.0106   tau(   46) = (    0.23250    0.07963    1.67594  )
       47  C      12.0106   tau(   47) = (   -0.18521    0.16154    1.67594  )
       48  C      12.0106   tau(   48) = (   -0.04729   -0.24117    1.67594  )
       49  H       1.0075   tau(   49) = (    0.33525   -0.02950    1.30527  )
       50  H       1.0075   tau(   50) = (   -0.14208    0.30508    1.30527  )
       51  H       1.0075   tau(   51) = (   -0.19317   -0.27559    1.30527  )
       52  H       1.0075   tau(   52) = (    0.28211   -0.31450    1.25031  )
       53  H       1.0075   tau(   53) = (    0.13131    0.40157    1.25031  )
       54  H       1.0075   tau(   54) = (   -0.41342   -0.08706    1.25031  )
       55  H       1.0075   tau(   55) = (    0.23731    0.01346    1.17027  )
       56  H       1.0075   tau(   56) = (   -0.13031    0.19879    1.17027  )
       57  H       1.0075   tau(   57) = (   -0.10700   -0.21225    1.17027  )
       58  H       1.0075   tau(   58) = (   -0.12860    0.17106    1.72382  )
       59  H       1.0075   tau(   59) = (   -0.08384   -0.19690    1.72382  )
       60  H       1.0075   tau(   60) = (    0.21244    0.02584    1.72382  )
[...]
      106  O      15.9990   tau(  106) = (   -0.27213   -0.04485    0.74347  )
      107  O      15.9990   tau(  107) = (    0.17491   -0.21325    0.74347  )
      108  O      15.9990   tau(  108) = (    0.09723    0.25810    0.74347  )
      109  O      15.9990   tau(  109) = (   -0.18306   -0.20854    0.75539  )
      110  O      15.9990   tau(  110) = (    0.27213   -0.05427    0.75539  )
      111  O      15.9990   tau(  111) = (   -0.08907    0.26281    0.75539  )
      112  O      15.9990   tau(  112) = (   -0.10792   -0.06048    0.86617  )
      113  O      15.9990   tau(  113) = (    0.10634   -0.06322    0.86617  )
      114  O      15.9990   tau(  114) = (    0.00158    0.12371    0.86617  )
      115  Zr     91.2240   tau(  115) = (   -0.00230   -0.14677    0.90103  )
      116  Zr     91.2240   tau(  116) = (    0.12826    0.07139    0.90103  )
      117  Zr     91.2240   tau(  117) = (   -0.12596    0.07538    0.90103  )
      118  Zr     91.2240   tau(  118) = (   -0.12686   -0.07138    0.71703  )
      119  Zr     91.2240   tau(  119) = (    0.12524   -0.07418    0.71703  )
      120  Zr     91.2240   tau(  120) = (    0.00162    0.14555    0.71703  )

     Computing dynamical matrix for
                    q = (   0.0000000   0.0000000   0.0000000 )

      4 Sym.Ops. (with q -> -q+G )

     G cutoff =17247.1809  (  27293 G-vectors)     FFT grid: (270,270,270)
     G cutoff =11498.1206  (  14854 G-vectors)  smooth grid: (216,216,216)
     number of k points=     1
                       cart. coord. in units 2pi/alat
        k(    1) = (   0.0000000   0.0000000   0.0000000), wk =   2.0000000

     PseudoPot. # 1 for H  read from file:
     /home/mehlhorn/pseudos/UiO-66_pbe-spn-kjpaw/H.pbe-kjpaw_psl.1.0.0.UPF
     MD5 check sum: d81a744832360e4a8af0b0b5b123bc2a
     Pseudo is Projector augmented-wave, Zval =  1.0
     Generated using &quot;atomic&quot; code by A. Dal Corso  v.6.3MaX
     Shape of augmentation charge: PSQ
     Using radial grid of  929 points,  2 beta functions with:
                l(1) =   0
                l(2) =   0
     Q(r) pseudized with 0 coefficients

     PseudoPot. # 2 for Zr read from file:
     /home/mehlhorn/pseudos/UiO-66_pbe-spn-kjpaw/Zr.pbe-spn-kjpaw_psl.1.0.0.UPF
     MD5 check sum: 02112c41713a0468aff2bb39ef194e36
     Pseudo is Projector augmented-wave + core cor, Zval = 12.0
     Generated using &quot;atomic&quot; code by A. Dal Corso  v.6.2.2
     Shape of augmentation charge: PSQ
     Using radial grid of 1225 points,  6 beta functions with:
                l(1) =   0
                l(2) =   0
                l(3) =   1
                l(4) =   1
                l(5) =   2
                l(6) =   2
     Q(r) pseudized with 0 coefficients

     PseudoPot. # 3 for C  read from file:
     /home/mehlhorn/pseudos/UiO-66_pbe-spn-kjpaw/C.pbe-n-kjpaw_psl.1.0.0.UPF
     MD5 check sum: 5f16ad9a65e90284d1d834d4ab3b0f7d
     Pseudo is Projector augmented-wave + core cor, Zval =  4.0
     Generated using &quot;atomic&quot; code by A. Dal Corso  v.6.3
     Shape of augmentation charge: PSQ
     Using radial grid of 1073 points,  4 beta functions with:
                l(1) =   0
                l(2) =   0
                l(3) =   1
                l(4) =   1
     Q(r) pseudized with 0 coefficients

     PseudoPot. # 4 for O  read from file:
     /home/mehlhorn/pseudos/UiO-66_pbe-spn-kjpaw/O.pbe-n-kjpaw_psl.1.0.0.UPF
     MD5 check sum: e99d9cef9b487d1ca56f5b95ecd0fd7a
     Pseudo is Projector augmented-wave + core cor, Zval =  6.0
     Generated using &quot;atomic&quot; code by A. Dal Corso  v.6.3
     Shape of augmentation charge: PSQ
[...]
      E*y (       -0.06119        0.02932       -0.04363 )
      E*z (       -0.04232       -0.07498        0.09438 )
           atom   50  H     Mean Z*:        0.08403
      E*x (       -0.00457       -0.01557        0.06205 )
      E*y (       -0.00248        0.16227       -0.02022 )
      E*z (        0.08609        0.00084        0.09438 )
           atom   51  H     Mean Z*:        0.08403
      E*x (        0.11274        0.07021       -0.01351 )
      E*y (        0.08330        0.04495        0.06385 )
      E*z (       -0.04377        0.07414        0.09438 )
           atom   52  H     Mean Z*:        0.09192
      E*x (        0.14380       -0.00491        0.01066 )
      E*y (       -0.03560       -0.04116       -0.01485 )
      E*z (       -0.00927        0.01428        0.17313 )
           atom   53  H     Mean Z*:        0.09192
      E*x (       -0.01246       -0.05461        0.00753 )
      E*y (       -0.08531        0.11510        0.01665 )
      E*z (       -0.00773       -0.01517        0.17313 )
           atom   54  H     Mean Z*:        0.09192
      E*x (        0.02262        0.10556       -0.01819 )
      E*y (        0.07487        0.08002       -0.00180 )
      E*z (        0.01700        0.00089        0.17313 )
           atom   55  H     Mean Z*:        0.09677
      E*x (        0.12799        0.00104        0.01905 )
      E*y (       -0.00991       -0.00697        0.00665 )
      E*z (       -0.00510        0.03009        0.16928 )
           atom   56  H     Mean Z*:        0.09677
      E*x (        0.02293       -0.05074       -0.01529 )
      E*y (       -0.06169        0.09809        0.01317 )
      E*z (       -0.02351       -0.01947        0.16928 )
           atom   57  H     Mean Z*:        0.09677
      E*x (        0.03062        0.06613       -0.00377 )
      E*y (        0.05518        0.09040       -0.01983 )
      E*z (        0.02861       -0.01063        0.16928 )
           atom   58  H     Mean Z*:        0.09721
      E*x (        0.07429        0.01114       -0.11237 )
      E*y (       -0.00959        0.14935       -0.00169 )
      E*z (       -0.09531        0.01576        0.06800 )
           atom   59  H     Mean Z*:        0.09721
      E*x (        0.13126        0.04247        0.05765 )
      E*y (        0.02175        0.09238       -0.09647 )
      E*z (        0.03401       -0.09042        0.06800 )
           atom   60  H     Mean Z*:        0.09721
      E*x (        0.12991       -0.02253        0.05472 )
      E*y (       -0.04325        0.09373        0.09816 )
      E*z (        0.06130        0.07466        0.06800 )
           atom   61  H     Mean Z*:        0.09538
      E*x (        0.05463       -0.00349        0.10305 )
      E*y (        0.03249        0.17179       -0.00233 )
      E*z (        0.10436        0.01047        0.05971 )
           atom   62  H     Mean Z*:        0.09538
      E*x (        0.15506        0.02549       -0.04950 )
      E*y (        0.06148        0.07136        0.09041 )
      E*z (       -0.06125        0.08514        0.05971 )
           atom   63  H     Mean Z*:        0.09538
      E*x (        0.12994       -0.07598       -0.05355 )
      E*y (       -0.03999        0.09648       -0.08808 )
      E*z (       -0.04311       -0.09561        0.05971 )
           atom   64  H     Mean Z*:        0.10212
      E*x (        0.08828       -0.02587        0.11280 )
      E*y (        0.00098        0.17596        0.00900 )
      E*z (        0.10498        0.03554        0.04212 )
           atom   65  H     Mean Z*:        0.10212
      E*x (        0.14326        0.03077       -0.06419 )
      E*y (        0.05761        0.12098        0.09319 )
      E*z (       -0.08327        0.07315        0.04212 )
           atom   66  H     Mean Z*:        0.10212
      E*x (        0.16482       -0.04517       -0.04861 )
      E*y (       -0.01832        0.09942       -0.10219 )
      E*z (       -0.02171       -0.10869        0.04212 )
           atom   67  H     Mean Z*:        0.35623
      E*x (        0.39498       -0.16735        0.02640 )
      E*y (       -0.04703        0.28729       -0.03229 )
      E*z (        0.12431       -0.11839        0.38640 )
           atom   68  H     Mean Z*:        0.35623
      E*x (        0.22138       -0.05319        0.01476 )
      E*y (        0.06712        0.46089        0.03901 )
      E*z (        0.04038        0.16686        0.38640 )
           atom   69  H     Mean Z*:        0.35623
      E*x (        0.40705        0.04007       -0.04116 )
      E*y (        0.16038        0.27523       -0.00672 )
      E*z (       -0.16469       -0.04846        0.38640 )
           atom   70  H     Mean Z*:        0.23299
      E*x (        0.23698        0.02376       -0.11460 )
      E*y (        0.10899        0.23710       -0.02833 )
      E*z (       -0.04748        0.01714        0.22489 )
           atom   71  H     Mean Z*:        0.23299
      E*x (        0.29455       -0.07576        0.08183 )
      E*y (        0.00948        0.17953       -0.08508 )
      E*z (        0.00889       -0.04969        0.22489 )
           atom   72  H     Mean Z*:        0.23299
      E*x (        0.17959       -0.07585        0.03277 )
      E*y (        0.00938        0.29449        0.11341 )
      E*z (        0.03858        0.03255        0.22489 )
           atom   73  H     Mean Z*:        0.37632
      E*x (        0.57797        0.07463        0.17124 )
      E*y (       -0.00548        0.35324       -0.12169 )
      E*z (        0.02614       -0.03498        0.19776 )
           atom   74  H     Mean Z*:        0.37632
      E*x (        0.43936       -0.07455        0.01977 )
      E*y (       -0.15465        0.49184        0.20915 )
      E*z (        0.01723        0.04013        0.19776 )
           atom   75  H     Mean Z*:        0.37632
      E*x (        0.37948        0.12007       -0.19101 )
      E*y (        0.03997        0.55173       -0.08746 )
      E*z (       -0.04336       -0.00514        0.19776 )
           atom   76  H     Mean Z*:        0.25007
      E*x (        0.14279        0.00269       -0.00021 )
      E*y (        0.00312        0.41258       -0.12212 )
      E*z (       -0.03281       -0.02961        0.19483 )
           atom   77  H     Mean Z*:        0.25007
      E*x (        0.34765        0.11515        0.10587 )
      E*y (        0.11558        0.20772        0.06088 )
      E*z (        0.04204       -0.01361        0.19483 )
           atom   78  H     Mean Z*:        0.25007
      E*x (        0.34261       -0.11849       -0.10565 )
      E*y (       -0.11806        0.21276        0.06125 )
      E*z (       -0.00924        0.04322        0.19483 )
           atom   79  N     Mean Z*:       -0.80754
      E*x (       -0.68030       -0.32227       -0.12140 )
      E*y (       -0.56867       -0.99912       -0.40788 )
      E*z (       -0.31368       -0.44107       -0.74319 )
           atom   80  N     Mean Z*:       -0.80754
      E*x (       -1.30520        0.20788        0.41393 )
      E*y (       -0.03852       -0.37421        0.09880 )
      E*z (        0.53882       -0.05112       -0.74319 )
           atom   81  N     Mean Z*:       -0.80754
      E*x (       -0.53363        0.48399       -0.29253 )
      E*y (        0.23759       -1.14579        0.30907 )
      E*z (       -0.22514        0.49219       -0.74319 )
           atom   82  N     Mean Z*:       -0.83099
      E*x (       -0.60639        0.29566        0.26133 )
      E*y (        0.40663       -1.14857       -0.28868 )
      E*z (        0.37465       -0.45148       -0.73801 )
           atom   83  N     Mean Z*:       -0.83099
      E*x (       -0.70892       -0.46583        0.11934 )
      E*y (       -0.35486       -1.04604        0.37066 )
      E*z (        0.20367        0.55019       -0.73801 )
           atom   84  N     Mean Z*:       -0.83099
      E*x (       -1.31713        0.00371       -0.38067 )
      E*y (        0.11468       -0.43783       -0.08198 )
      E*z (       -0.57831       -0.09871       -0.73801 )
           atom   85  O     Mean Z*:       -1.62210
      E*x (       -1.88148       -0.38319       -1.28107 )
      E*y (       -0.20216       -0.95021       -0.00856 )
      E*z (       -1.43036       -0.32229       -2.03462 )
           atom   86  O     Mean Z*:       -1.62210
      E*x (       -1.43649        0.45907        0.64794 )
      E*y (        0.64010       -1.39520       -1.10516 )
      E*z (        0.99429       -1.07759       -2.03462 )
           atom   87  O     Mean Z*:       -1.62210
      E*x (       -0.92957       -0.34743        0.63312 )
      E*y (       -0.16640       -1.90213        1.11372 )
      E*z (        0.43607        1.39988       -2.03462 )
           atom   88  O     Mean Z*:       -1.60906
      E*x (       -0.86833       -0.13943        0.47129 )
      E*y (       -0.07199       -1.90074        1.18297 )
      E*z (        0.42739        1.33815       -2.05810 )
           atom   89  O     Mean Z*:       -1.60906
      E*x (       -1.73419       -0.42791       -1.26013 )
      E*y (       -0.36047       -1.03489       -0.18334 )
      E*z (       -1.37256       -0.29894       -2.05810 )
           atom   90  O     Mean Z*:       -1.60906
      E*x (       -1.55110        0.46618        0.78884 )
      E*y (        0.53362       -1.21798       -0.99963 )
      E*z (        0.94517       -1.03920       -2.05810 )
           atom   91  O     Mean Z*:       -1.64687
      E*x (       -0.80547        0.37631       -0.58762 )
      E*y (        0.27353       -2.13162        1.01248 )
      E*z (       -0.49192        1.33118       -2.00351 )
           atom   92  O     Mean Z*:       -1.64687
      E*x (       -1.51870       -0.68531       -0.58302 )
      E*y (       -0.78809       -1.41840       -1.01513 )
      E*z (       -0.90687       -1.09161       -2.00351 )
           atom   93  O     Mean Z*:       -1.64687
      E*x (       -2.08147        0.46317        1.17064 )
      E*y (        0.36039       -0.85562        0.00266 )
      E*z (        1.39880       -0.23957       -2.00351 )
           atom   94  O     Mean Z*:       -1.71898
      E*x (       -1.62055       -0.83257       -0.69050 )
      E*y (       -1.03266       -1.56915       -1.11309 )
      E*z (       -1.07095       -1.15432       -1.96724 )
           atom   95  O     Mean Z*:       -1.71898
      E*x (       -2.38967        0.58861        1.30922 )
      E*y (        0.38852       -0.80003       -0.04144 )
      E*z (        1.53515       -0.35031       -1.96724 )
           atom   96  O     Mean Z*:       -1.71898
      E*x (       -0.77433        0.54410       -0.61872 )
      E*y (        0.34400       -2.41537        1.15454 )
      E*z (       -0.46420        1.50463       -1.96724 )
           atom   97  O     Mean Z*:       -2.10111
      E*x (       -2.96094        0.09047       -0.02929 )
      E*y (        0.04980       -1.39066        0.09166 )
      E*z (        0.01117        0.24846       -1.95173 )
           atom   98  O     Mean Z*:       -2.10111
      E*x (       -1.72249        0.66522       -0.06473 )
      E*y (        0.62454       -2.62911       -0.07119 )
      E*z (       -0.22076       -0.11456       -1.95173 )
           atom   99  O     Mean Z*:       -2.10111
      E*x (       -1.84397       -0.69468        0.09402 )
      E*y (       -0.73535       -2.50763       -0.02046 )
      E*z (        0.20959       -0.13390       -1.95173 )
           atom  100  O     Mean Z*:       -1.71797
      E*x (       -0.90820        0.52731        0.02077 )
      E*y (        0.52168       -3.23514        1.07256 )
      E*z (        0.04083        0.87169       -1.01058 )
           atom  101  O     Mean Z*:       -1.71797
      E*x (       -2.19918       -1.26702       -0.93924 )
      E*y (       -1.27266       -1.94416       -0.51830 )
      E*z (       -0.77532       -0.40048       -1.01058 )
           atom  102  O     Mean Z*:       -1.71797
      E*x (       -3.10763        0.74816        0.91848 )
      E*y (        0.74253       -1.03571       -0.55426 )
      E*z (        0.73449       -0.47121       -1.01058 )
           atom  103  O     Mean Z*:       -1.72418
      E*x (       -2.24472        1.15640        1.02643 )
      E*y (        1.34056       -1.76445       -0.66469 )
      E*z (        0.79590       -0.38899       -1.16336 )
           atom  104  O     Mean Z*:       -1.72418
      E*x (       -0.80330       -0.50836        0.06242 )
      E*y (       -0.32420       -3.20587        1.22126 )
      E*z (       -0.06107        0.88376       -1.16336 )
           atom  105  O     Mean Z*:       -1.72418
      E*x (       -2.96574       -0.92428       -1.08885 )
      E*y (       -0.74012       -1.04344       -0.55657 )
      E*z (       -0.73483       -0.49477       -1.16336 )
           atom  106  O     Mean Z*:       -1.69847
      E*x (       -3.20515        0.71828        0.89021 )
      E*y (        0.48741       -0.87858       -0.43455 )
      E*z (        0.67067       -0.42714       -1.01169 )
           atom  107  O     Mean Z*:       -1.69847
      E*x (       -0.93814        0.82145       -0.06877 )
      E*y (        0.59058       -3.14558        0.98822 )
      E*z (        0.03459        0.79439       -1.01169 )
           atom  108  O     Mean Z*:       -1.69847
      E*x (       -1.98230       -1.19342       -0.82144 )
      E*y (       -1.42429       -2.10143       -0.55367 )
      E*z (       -0.70525       -0.36724       -1.01169 )
           atom  109  O     Mean Z*:       -1.63721
      E*x (       -0.96124       -0.56303       -0.01711 )
      E*y (       -0.45335       -2.94437        0.99707 )
      E*z (       -0.07148        0.78925       -1.00602 )
           atom  110  O     Mean Z*:       -1.63721
      E*x (       -2.88869       -0.65946       -0.85494 )
      E*y (       -0.54979       -1.01692       -0.51336 )
      E*z (       -0.64777       -0.45653       -1.00602 )
           atom  111  O     Mean Z*:       -1.63721
      E*x (       -2.00848        1.05798        0.87205 )
      E*y (        1.16765       -1.89713       -0.48372 )
      E*z (        0.71925       -0.33272       -1.00602 )
           atom  112  O     Mean Z*:       -2.11199
      E*x (       -1.76797        0.64963       -0.04806 )
      E*y (        0.61496       -2.60268       -0.08560 )
      E*z (       -0.23386       -0.09624       -1.96534 )
           atom  113  O     Mean Z*:       -2.11199
      E*x (       -1.84641       -0.66025        0.09816 )
      E*y (       -0.69492       -2.52423        0.00118 )
      E*z (        0.20027       -0.15441       -1.96534 )
           atom  114  O     Mean Z*:       -2.11199
      E*x (       -2.94158        0.06263       -0.05010 )
      E*y (        0.02795       -1.42906        0.08442 )
      E*z (        0.03359        0.25065       -1.96534 )
           atom  115  Zr    Mean Z*:        5.16952
      E*x (        6.12693       -0.12189       -0.15733 )
      E*y (        0.00525        4.46300       -0.17305 )
      E*z (        0.15913        0.21320        4.91864 )
           atom  116  Zr    Mean Z*:        5.16952
      E*x (        4.82848       -0.75492        0.22853 )
      E*y (       -0.62777        5.76145       -0.04973 )
      E*z (       -0.26420        0.03121        4.91864 )
           atom  117  Zr    Mean Z*:        5.16952
      E*x (        4.92949        0.68609       -0.07120 )
      E*y (        0.81324        5.66044        0.22278 )
      E*z (        0.10507       -0.24441        4.91864 )
           atom  118  Zr    Mean Z*:        5.07483
      E*x (        4.99106       -0.67982        0.10849 )
      E*y (       -0.38811        5.38432       -0.06111 )
      E*z (       -0.25857       -0.01780        4.84911 )
           atom  119  Zr    Mean Z*:        5.07483
      E*x (        4.82358        0.29142       -0.00132 )
      E*y (        0.58312        5.55180        0.12451 )
      E*z (        0.14470       -0.21503        4.84911 )
           atom  120  Zr    Mean Z*:        5.07483
      E*x (        5.74843       -0.04916       -0.10717 )
      E*y (        0.24255        4.62695       -0.06340 )
      E*z (        0.11387        0.23283        4.84911 )

     INITIALIZATION:

     DIELECTRIC CONSTANT AND EFFECTIVE CHARGES:

                                        0.00s GPU  (     360 calls)

      General routines

      Additional routines
                                        0.00s GPU  (    2386 calls)
                                        0.00s GPU  (    2386 calls)

   This run was terminated on:  22:15:38  19Jun2025

   JOB DONE.